LAMMPS (3 Mar 2020)
  using 8 OpenMP thread(s) per MPI task
##

############################################################
#####	 	    Argon in tank	   	   #########
############################################################
variable		temperature equal 85.0

units			real
atom_style		atomic
dimension 		3
boundary		p p p

read_data		atomdata
  orthogonal box = (0 0 0) to (980 39.2 392)
  4 by 1 by 1 MPI processor grid
  reading atoms ...
  99577 atoms
  read_data CPU = 0.14064 secs
#read_restart 		water.restart.mpiio

############################################################
#############INTERACTION PARAMETERS########################
group			film    type 1
46297 atoms in group film
group	   	 	wall    type 2
53280 atoms in group wall

mass           		1 	39.792  ## atomic mass of argon
mass                    2       195.084  ## atomic mass of platinum

neighbor        	2.0 bin
neigh_modify		every 1 delay 1 check yes

################# hybrid potential #######################
#pair_style 		hybrid/overlay lj/cut 18.7 sw

#pair_coeff              * * sw mW.sw mW NULL
#pair_coeff	    	2 2  lj/cut 15.999 2.47 7.0
#pair_coeff		1 2  lj/cut 0.9 2.8140 7.0
################### L-J potential #####################
pair_style             lj/cut  5.5

pair_coeff             1 1  0.24 3.4  18.7
pair_coeff             1 2  0.168 2.72  18.7
pair_coeff             2 2  15.999 2.47  7.0
######################################################

fix	    		f1 wall setforce 0.0 0.0 0.0
thermo			5
min_style 		fire
minimize    		1.0e-5 1.0e-7 200 10000
WARNING: Using 'neigh_modify every 1 delay 0 check yes' setting during minimization (../min.cpp:190)
Neighbor list info ...
  update every 1 steps, delay 0 steps, check yes
  max neighbors/atom: 2000, page size: 100000
  master list distance cutoff = 20.7
  ghost atom cutoff = 20.7
  binsize = 10.35, bins = 95 4 38
  1 neighbor lists, perpetual/occasional/extra = 1 0 0
  (1) pair lj/cut, perpetual
      attributes: half, newton on
      pair build: half/bin/atomonly/newton
      stencil: half/bin/3d/newton
      bin: standard
  Parameters for fire: 
    dmax delaystep dtgrow dtshrink alpha0 alphashrink tmax tmin    integrator halfstepback 
     0.1        20    1.1      0.5   0.25        0.99   10 0.02 eulerimplicit          yes 
Per MPI rank memory allocation (min/avg/max) = 59.64 | 70.57 | 82.07 Mbytes
Step Temp E_pair E_mol TotEng Press 
       0            0   -3944499.6            0   -3944499.6    31197.639 
       5    279.78471   -4199709.4            0   -4116664.5     26725.93 
      10    1654.5012   -4765247.7            0   -4274163.4    17364.614 
      15    3083.3318   -5359378.1            0   -4444192.4    7370.5348 
      20    3678.3437   -5694006.1            0   -4602210.7    1425.4103 
      25    3893.1096   -5888588.1            0   -4733046.5   -2240.2531 
      30    3836.5525   -6028897.4            0   -4890142.9   -5166.1814 
      35    3379.9393   -6104525.6            0   -5101301.7   -7199.6643 
      40    2821.8332   -6144631.5            0   -5307063.1   -8608.6408 
      45    2301.6166   -6166968.4            0   -5483809.2   -9610.8666 
      50    1789.8423   -6180925.9            0   -5649670.1   -10426.568 
      55    1364.4387   -6189145.5            0   -5784156.7   -11031.487 
      60    1001.7601   -6194829.1            0   -5897489.5   -11521.053 
      65    713.90013   -6198441.3            0   -5986543.5    -11889.52 
      70    502.23454   -6200828.9            0   -6051757.1   -12155.057 
      75    372.07311   -6202542.1            0   -6092104.4   -12326.771 
      80    261.61009   -6203990.1            0   -6126339.7   -12472.906 
      85    170.17286   -6205100.2            0     -6154590   -12590.921 
      90    102.77277   -6206009.1            0   -6175504.4    -12679.85 
      95    59.862833     -6206745            0   -6188976.7   -12739.536 
     100    33.167286   -6207299.3            0   -6197454.7   -12777.597 
     105    20.442235   -6207725.6            0     -6201658   -12798.382 
     110    14.202204   -6208068.8            0   -6203853.3   -12810.331 
     111    13.365783   -6208129.8            0   -6204162.6   -12812.083 
Loop time of 18.4523 on 32 procs for 111 steps with 99577 atoms

96.8% CPU use with 4 MPI tasks x 8 OpenMP threads

Minimization stats:
  Stopping criterion = energy tolerance
  Energy initial, next-to-last, final = 
        -3944499.59735     -6208068.79573     -6208129.80643
  Force two-norm initial, final = 426107 31.8544
  Force max component initial, final = 260605 0.635725
  Final line search alpha, max atom move = 0 0
  Iterations, force evaluations = 111 113

MPI task timing breakdown:
Section |  min time  |  avg time  |  max time  |%varavg| %total
---------------------------------------------------------------
Pair    | 11.569     | 12.856     | 14.353     |  27.7 | 69.67
Neigh   | 1.512      | 2.0859     | 2.7748     |  37.5 | 11.30
Comm    | 0.85866    | 2.963      | 4.6012     |  78.7 | 16.06
Output  | 0.012078   | 0.012845   | 0.0136     |   0.6 |  0.07
Modify  | 0.0036573  | 0.0062956  | 0.0093889  |   3.2 |  0.03
Other   |            | 0.5284     |            |       |  2.86

Nlocal:    24894.2 ave 30365 max 19439 min
Histogram: 2 0 0 0 0 0 0 0 0 2
Nghost:    67894.2 ave 86540 max 49301 min
Histogram: 2 0 0 0 0 0 0 0 0 2
Neighs:    6.49979e+06 ave 7.15734e+06 max 6.01475e+06 min
Histogram: 2 0 0 0 0 0 1 0 0 1

Total # of neighbors = 25999172
Ave neighs/atom = 261.096
Neighbor list builds = 11
Dangerous builds = 1


############################################################
#############EQUILIBRATION PARAMETERS######################
velocity 		film create ${temperature} 12345
velocity 		film create 85 12345
compute 		myTemp film temp
fix			1 film nvt temp ${temperature} ${temperature} 100.0
fix			1 film nvt temp 85 ${temperature} 100.0
fix			1 film nvt temp 85 85 100.0
fix_modify   		1 temp myTemp
WARNING: Temperature for fix modify is not for group all (../fix_nh.cpp:1409)

fix	    		f2 wall setforce 0.0 0.0 0.0
velocity		wall set 0.0 0.0 0.0

###########################################################
############### Post parameters############################
thermo_style    	custom step temp pe etotal
thermo_modify	        temp myTemp
WARNING: Temperature for thermo pressure is not for group all (../thermo.cpp:485)
thermo			100
fix            		extra film print 2000 "$(step) $(temp) $(pe)" append iteration_info.dat 			screen no

timestep		5.0
reset_timestep 		0
restart     		100000 water.restart.mpiio
dump			1 all custom 500 copy_thinfilmtank.dat id type x y z
run			200000
Per MPI rank memory allocation (min/avg/max) = 63.05 | 74.36 | 86.23 Mbytes
Step Temp PotEng TotEng 
       0           85   -6208129.8   -6196399.8 
     100    71.355641     -6202036     -6192189 
     200    86.097179   -6200460.1   -6188578.7 
     300    84.928602   -6200102.7   -6188382.6 
     400    84.531661     -6199694   -6188028.7 
     500    85.039496     -6199208   -6187472.6 
     600    85.225826   -6198930.5   -6187169.4 
     700    84.484746   -6198823.5   -6187164.6 
     800    84.753469   -6198806.3   -6187110.3 
     900    85.034402   -6198745.2   -6187010.5 
    1000    85.019057   -6198707.9   -6186975.3 
    1100    85.202281   -6198806.6   -6187048.7 
    1200    85.213812   -6198845.4     -6187086 
    1300     85.33795   -6198857.7   -6187081.1 
    1400    84.967591   -6198938.5     -6187213 
    1500    85.163608   -6199000.6   -6187248.1 
    1600    85.255716   -6199117.5   -6187352.2 
    1700     84.81909   -6199161.9   -6187456.9 
    1800    84.785779   -6199309.9   -6187609.5 
    1900    84.744289   -6199421.2   -6187726.5 
    2000    84.854267   -6199562.3   -6187852.5 
    2100    84.937091   -6199614.8   -6187893.5 
    2200    84.807011   -6199729.5   -6188026.2 
    2300    85.170086   -6199805.6   -6188052.1 
    2400    85.343924   -6199881.1   -6188103.6 
    2500    85.096671   -6199959.4   -6188216.1 
    2600    84.869078   -6200123.2   -6188411.3 
    2700    85.368631   -6200241.6   -6188460.8 
    2800    84.752754   -6200349.5   -6188653.7 
    2900    84.601787     -6200482     -6188807 
    3000    85.258801     -6200641   -6188875.3 
    3100    85.135837   -6200861.9   -6189113.2 
    3200    85.072727   -6200888.6   -6189148.6 
    3300    85.266374   -6201110.3   -6189343.6 
    3400    85.344584   -6201286.5     -6189509 
    3500    84.777382   -6201404.5   -6189705.3 
    3600     84.81362   -6201544.2   -6189839.9 
    3700    85.317391   -6201710.1   -6189936.3 
    3800    84.681096     -6201848   -6190162.1 
    3900     84.66857   -6201879.8   -6190195.6 
    4000    85.187724   -6202043.4   -6190287.5 
    4100    85.327461   -6202155.4   -6190380.3 
    4200    84.619943   -6202256.5   -6190578.9 
    4300    84.874327   -6202274.6     -6190562 
    4400    85.004752   -6202371.2   -6190640.6 
    4500    84.767686     -6202390   -6190692.1 
    4600    84.898209   -6202506.8   -6190790.9 
    4700    85.014615   -6202477.6   -6190745.7 
    4800    84.247508   -6202600.7   -6190974.6 
    4900    84.540254   -6202512.7   -6190846.2 
    5000    84.983261   -6202543.5   -6190815.8 
    5100    84.735527   -6202568.5   -6190875.1 
    5200    84.622349   -6202611.8   -6190933.9 
    5300    85.131934   -6202568.7   -6190820.5 
    5400    84.762301     -6202563   -6190865.8 
    5500    85.183818   -6202541.8   -6190786.4 
    5600    84.791155     -6202532   -6190830.9 
    5700    84.931005   -6202519.3   -6190798.8 
    5800    85.437052   -6202365.5   -6190575.2 
    5900     85.67168   -6202323.3   -6190500.6 
    6000    84.982462     -6202210   -6190482.4 
    6100    84.712631   -6202152.4   -6190462.1 
    6200    85.209067     -6202048   -6190289.1 
    6300    85.058475   -6201974.6   -6190236.6 
    6400     85.55428     -6201933   -6190126.5 
    6500    85.255843   -6201771.5   -6190006.2 
    6600    84.688468   -6201679.6   -6189992.7 
    6700    85.194308   -6201630.6   -6189873.8 
    6800      84.5241   -6201517.5   -6189853.2 
    6900    84.997736   -6201388.8   -6189659.1 
    7000    85.133188   -6201359.3     -6189611 
    7100    84.498262   -6201266.7     -6189606 
    7200    85.122161   -6201178.8     -6189432 
    7300    84.924079   -6201035.8   -6189316.3 
    7400    85.197551   -6200992.2   -6189234.9 
    7500    84.866835   -6200807.2   -6189095.6 
    7600    84.360389     -6200800   -6189158.3 
    7700    84.470698     -6200733     -6189076 
    7800    85.357254   -6200643.3     -6188864 
    7900    84.700864   -6200576.7     -6188888 
    8000    84.714887   -6200491.3   -6188800.7 
    8100     85.48639   -6200486.9   -6188689.8 
    8200    85.309718   -6200433.7     -6188661 
    8300    84.989885   -6200349.5   -6188620.9 
    8400    84.618034   -6200379.8   -6188702.6 
    8500    85.788435   -6200303.2   -6188464.4 
    8600      85.3301     -6200271   -6188495.5 
    8700    85.547054   -6200265.8   -6188460.3 
    8800    85.145703   -6200373.1     -6188623 
    8900    85.111059   -6200243.8   -6188498.5 
    9000    84.560631   -6200201.4     -6188532 
    9100    84.664117     -6200214   -6188530.4 
    9200     84.60778   -6200305.4   -6188629.6 
    9300    84.571747   -6200290.3   -6188619.4 
    9400    84.956933     -6200298     -6188574 
    9500    85.129493   -6200324.1   -6188576.2 
    9600    85.216073   -6200390.4   -6188630.7 
    9700    85.210795   -6200383.4   -6188624.3 
    9800    84.805426   -6200385.5   -6188682.4 
    9900    85.499923   -6200507.3   -6188708.4 
   10000    85.029029   -6200553.5   -6188819.6 
   10100    85.094531   -6200547.9   -6188804.9 
   10200    85.124012     -6200705   -6188957.9 
   10300    84.784084   -6200697.7   -6188997.6 
   10400    85.179392   -6200750.5   -6188995.7 
   10500    84.571126   -6200854.5   -6189183.7 
   10600    85.619506   -6200969.3   -6189153.9 
   10700     85.19993   -6200972.7   -6189215.1 
   10800    84.454571   -6201007.5   -6189352.8 
   10900    84.731697   -6201077.2   -6189384.3 
   11000    85.201559   -6201062.1   -6189304.4 
   11100    84.825428   -6201223.7   -6189517.8 
   11200    85.181034   -6201197.2   -6189442.3 
   11300    84.697517   -6201358.3   -6189670.1 
   11400    85.000618   -6201317.7   -6189587.7 
   11500    85.109048   -6201460.2   -6189715.1 
   11600     84.78292   -6201457.9   -6189757.8 
   11700    84.895662   -6201510.6   -6189795.1 
   11800    85.209411   -6201559.9   -6189801.1 
   11900    84.589506   -6201615.2   -6189941.9 
   12000    84.567788     -6201631   -6189960.6 
   12100    85.042428   -6201630.9     -6189895 
   12200    85.177097   -6201660.3   -6189905.9 
   12300    84.996857   -6201657.9   -6189928.4 
   12400    85.180003   -6201605.2   -6189850.4 
   12500    84.936305   -6201681.6   -6189960.4 
   12600    84.528191   -6201699.9     -6190035 
   12700    84.987591     -6201691   -6189962.8 
   12800    85.230043   -6201620.7   -6189858.9 
   12900    84.848875   -6201682.6   -6189973.5 
   13000    84.666455   -6201712.4   -6190028.4 
   13100     84.90266   -6201690.7   -6189974.1 
   13200    84.838478   -6201644.5   -6189936.8 
   13300    85.018625   -6201711.8   -6189979.3 
   13400    85.087265   -6201638.5   -6189896.5 
   13500    84.813704   -6201639.5   -6189935.2 
   13600    84.900104   -6201535.2     -6189819 
   13700    85.111416   -6201573.5   -6189828.2 
   13800     84.92289   -6201606.1   -6189886.8 
   13900    85.148499   -6201520.9   -6189770.4 
   14000    85.311033   -6201421.1   -6189648.2 
   14100    85.159866   -6201434.6   -6189682.5 
   14200     84.67661     -6201490   -6189804.6 
   14300    84.447406   -6201371.6   -6189717.9 
   14400    85.239498   -6201337.3   -6189574.3 
   14500    84.998306   -6201301.4   -6189571.7 
   14600    84.757139   -6201262.4     -6189566 
   14700    84.448194   -6201252.8     -6189599 
   14800    84.839964   -6201213.1   -6189505.2 
   14900    85.303534   -6201223.9     -6189452 
   15000    85.193719     -6201092   -6189335.3 
   15100    84.905813     -6201083     -6189366 
   15200      84.7002   -6201050.2   -6189361.6 
   15300    85.197592   -6201086.7   -6189329.4 
   15400    85.490748   -6201101.4   -6189303.7 
   15500    84.904136   -6201062.5   -6189345.8 
   15600    85.288414   -6201084.9   -6189315.1 
   15700    85.059063     -6201047   -6189308.9 
   15800    84.994163   -6201011.8   -6189282.6 
   15900     85.27411   -6200939.4   -6189171.6 
   16000    85.583162   -6200943.9   -6189133.5 
   16100    84.985721   -6200867.1   -6189139.1 
   16200    84.872776   -6200864.3   -6189151.9 
   16300    84.826059   -6200846.6   -6189140.7 
   16400    85.096472     -6200829   -6189085.8 
   16500    85.039921   -6200847.6   -6189112.1 
   16600     84.74556     -6200740   -6189045.2 
   16700    84.611186   -6200827.2   -6189150.9 
   16800    84.388964   -6200820.1   -6189174.5 
   16900    85.063076   -6200864.2   -6189125.5 
   17000      84.8981   -6200867.1   -6189151.2 
   17100    84.880641   -6200874.1   -6189160.6 
   17200    84.751665   -6200827.8   -6189132.1 
   17300    84.790056   -6200830.9   -6189129.9 
   17400    84.867374     -6200872   -6189160.4 
   17500     84.79951   -6200898.1   -6189195.8 
   17600     84.70317   -6200953.3   -6189264.3 
   17700     85.28661   -6200789.2   -6189019.7 
   17800    84.669566   -6200867.2   -6189182.8 
   17900    84.831264   -6200913.3   -6189206.7 
   18000    85.310262   -6200892.3   -6189119.5 
   18100    84.707866   -6200901.8   -6189212.2 
   18200    84.737463   -6200971.4   -6189277.6 
   18300    84.758042   -6200880.3   -6189183.7 
   18400    85.042165   -6200902.5   -6189166.7 
   18500    84.342314   -6200946.7   -6189307.5 
   18600     85.06776   -6201005.2   -6189265.9 
   18700    84.994488   -6201045.3   -6189316.1 
   18800    85.163469   -6201077.7   -6189325.1 
   18900    84.871881   -6201021.9   -6189309.6 
   19000    85.417069   -6201190.5     -6189403 
   19100    84.470761     -6201126   -6189469.1 
   19200    85.029062   -6201149.5   -6189415.5 
   19300    85.106784   -6201129.9   -6189385.2 
   19400    84.664687   -6201151.1   -6189467.4 
   19500    84.675261   -6201151.8   -6189466.7 
   19600    85.064018   -6201219.3   -6189480.5 
   19700    85.154558   -6201135.4   -6189384.2 
   19800    85.300573     -6201143   -6189371.5 
   19900    85.028219   -6201146.1   -6189412.2 
   20000    85.269616   -6201163.9   -6189396.8 
   20100    84.921973   -6201140.6   -6189421.4 
   20200    85.055597   -6201199.4   -6189461.8 
   20300    85.444431   -6201240.1   -6189448.8 
   20400    85.254192   -6201287.8   -6189522.8 
   20500    85.310732   -6201272.9   -6189500.1 
   20600    85.194373   -6201241.5   -6189484.8 
   20700    84.726719   -6201283.2     -6189591 
   20800    84.991817   -6201345.4   -6189616.6 
   20900     85.05365   -6201311.5   -6189574.1 
   21000     84.50422   -6201241.2   -6189579.6 
   21100    85.265789   -6201355.9   -6189589.3 
   21200    84.646079   -6201327.3   -6189646.2 
   21300    84.915478   -6201301.6   -6189583.3 
   21400     84.72521   -6201349.8   -6189657.8 
   21500    84.906946   -6201289.9   -6189572.8 
   21600    85.048245   -6201270.5   -6189533.9 
   21700    85.017521   -6201269.2   -6189536.9 
   21800    84.920074   -6201266.6   -6189547.7 
   21900    84.579957   -6201191.3   -6189519.3 
   22000    85.091893   -6201300.3   -6189557.7 
   22100    85.330677   -6201283.9   -6189508.3 
   22200    84.296138   -6201258.9   -6189626.1 
   22300    84.588194   -6201252.9   -6189579.7 
   22400    84.955816   -6201204.7   -6189480.8 
   22500    84.738404     -6201226   -6189532.2 
   22600    84.780773   -6201187.4   -6189487.6 
   22700    85.447051   -6201223.3   -6189431.7 
   22800    84.793071   -6201175.2   -6189473.8 
   22900    85.016563   -6201181.6   -6189449.4 
   23000    84.725689   -6201098.3   -6189406.2 
   23100    84.854093   -6201164.1   -6189454.3 
   23200    84.879557   -6201140.6   -6189427.2 
   23300    84.699194     -6201118   -6189429.5 
   23400    84.871453   -6201098.6   -6189386.4 
   23500    84.893542   -6201148.8   -6189433.5 
   23600    85.363567   -6201113.5   -6189333.4 
   23700    84.807797   -6201116.6   -6189413.2 
   23800    85.113587   -6201071.2   -6189325.5 
   23900    85.106753   -6201024.5   -6189279.8 
   24000    84.838293   -6201076.3   -6189368.6 
   24100    85.059625   -6201097.1     -6189359 
   24200    84.687965   -6201112.4   -6189425.5 
   24300    85.351282   -6201085.1   -6189306.6 
   24400    85.487874   -6201096.4   -6189299.2 
   24500    85.594855   -6201052.4   -6189240.4 
   24600    84.412896   -6201102.2   -6189453.3 
   24700     84.89009   -6201060.9   -6189346.1 
   24800    84.607431   -6201076.2   -6189400.4 
   24900    85.473413   -6201075.8   -6189280.5 
   25000    84.812579     -6201049   -6189344.9 
   25100    84.383022   -6201073.7   -6189428.8 
   25200    85.159749   -6201038.8   -6189286.8 
   25300    84.908659   -6201095.8   -6189378.4 
   25400     85.07603   -6201046.2   -6189305.7 
   25500    85.177502   -6201118.2   -6189363.8 
   25600    84.923948   -6201088.1   -6189368.7 
   25700    84.844852   -6201045.6     -6189337 
   25800    84.986574     -6201072   -6189343.9 
   25900    84.969479   -6201097.3   -6189371.6 
   26000    85.026767   -6201126.9   -6189393.2 
   26100    84.358113   -6201107.3   -6189465.9 
   26200    84.416917   -6201098.9   -6189449.4 
   26300    85.458037   -6201069.2     -6189276 
   26400    85.289633   -6201078.2   -6189308.3 
   26500    84.761726   -6201076.1   -6189379.1 
   26600    84.456698   -6201073.4   -6189418.4 
   26700    84.564535   -6201094.3   -6189424.4 
   26800    84.916047   -6201157.6   -6189439.2 
   26900    85.001149   -6201134.3   -6189404.1 
   27000     84.46232   -6201061.5   -6189405.8 
   27100    84.851098   -6201175.6   -6189466.2 
   27200    85.409377   -6201200.9   -6189414.4 
   27300    85.001095   -6201115.1     -6189385 
   27400    85.113275   -6201109.3   -6189363.7 
   27500    85.132179   -6201175.4   -6189427.1 
   27600    84.835785   -6201192.3     -6189485 
   27700    84.969145   -6201288.4   -6189562.7 
   27800     84.84347   -6201177.8   -6189469.5 
   27900    85.331666   -6201180.5   -6189404.7 
   28000    84.949417   -6201228.9     -6189506 
   28100     85.05993   -6201220.8   -6189482.5 
   28200    84.765613     -6201237   -6189539.4 
   28300    84.853879   -6201305.4   -6189595.6 
   28400    84.771916   -6201330.7   -6189632.2 
   28500    84.950853   -6201277.3   -6189554.1 
   28600    85.042843   -6201263.4   -6189527.5 
   28700    85.329927   -6201313.1   -6189537.6 
   28800    84.831341     -6201270   -6189563.3 
   28900    85.402823   -6201255.7   -6189470.2 
   29000    84.532912   -6201241.8   -6189576.3 
   29100    85.142198   -6201236.3   -6189486.7 
   29200    85.272485   -6201332.9   -6189565.3 
   29300    85.258543   -6201145.3   -6189379.6 
   29400    84.570017   -6201215.9   -6189545.3 
   29500    84.716022   -6201200.1   -6189509.3 
   29600    85.659312   -6201250.7   -6189429.8 
   29700    85.519903   -6201309.8   -6189508.1 
   29800    84.917129   -6201281.6   -6189563.1 
   29900    84.905154   -6201211.1   -6189494.2 
   30000    85.139533   -6201224.8   -6189475.6 
   30100    85.367662   -6201224.5   -6189443.8 
   30200    84.453887   -6201223.8   -6189569.2 
   30300    84.684791   -6201204.6   -6189518.1 
   30400    84.817073     -6201202   -6189497.2 
   30500    84.943674   -6201282.2     -6189560 
   30600    84.780337   -6201250.4   -6189550.7 
   30700    84.726133   -6201245.2   -6189553.1 
   30800    85.293555   -6201184.5     -6189414 
   30900    85.587174   -6201183.3   -6189372.3 
   31000    85.283052     -6201145     -6189376 
   31100    84.967138   -6201136.8   -6189411.4 
   31200    84.894879   -6201057.8   -6189342.4 
   31300    85.173438   -6201103.2   -6189349.3 
   31400    84.876575   -6201175.3   -6189462.4 
   31500    85.142554   -6201162.6   -6189412.9 
   31600    85.327162   -6201096.2   -6189321.1 
   31700    85.111669     -6201068   -6189322.7 
   31800     85.31177   -6201030.1   -6189257.1 
   31900    84.389237   -6201093.2   -6189447.5 
   32000    84.615786   -6201047.8   -6189370.9 
   32100    85.475295   -6201033.2   -6189237.7 
   32200    85.418944   -6201000.9   -6189213.2 
   32300    84.502063   -6201073.9   -6189412.7 
   32400    85.064733   -6200960.6   -6189221.7 
   32500    84.860585   -6200973.9   -6189263.2 
   32600    85.009622   -6200978.8   -6189247.5 
   32700    85.139971   -6201033.5   -6189284.3 
   32800    85.350319   -6200956.3     -6189178 
   32900    84.652885   -6201051.7   -6189369.7 
   33000    84.733686   -6200955.7   -6189262.5 
   33100    84.836626   -6201029.5     -6189322 
   33200     85.16163   -6201011.1   -6189258.8 
   33300    84.657422   -6201057.4   -6189374.7 
   33400    84.978715   -6201052.3   -6189325.2 
   33500    84.966758   -6200965.7   -6189240.3 
   33600    84.952735   -6200987.8   -6189264.4 
   33700    85.072455     -6201089     -6189349 
   33800    84.668733     -6201099   -6189414.7 
   33900    85.035972   -6201003.6   -6189268.7 
   34000    84.782197   -6201051.6   -6189351.7 
   34100    85.082925   -6201005.9   -6189264.5 
   34200    85.140636     -6200930   -6189180.7 
   34300    84.991999   -6201058.3   -6189329.4 
   34400    84.656857   -6201021.6     -6189339 
   34500    85.399772   -6201062.8   -6189277.6 
   34600    84.974404   -6200986.9   -6189260.5 
   34700    85.190153     -6201027   -6189270.8 
   34800    85.025156   -6201081.6   -6189348.1 
   34900    84.941859     -6201048   -6189326.1 
   35000     84.92954   -6201014.9   -6189294.7 
   35100    84.781179   -6201039.6   -6189339.8 
   35200    85.183588   -6201001.8   -6189246.5 
   35300    84.691446     -6201011   -6189323.6 
   35400    84.852352   -6201058.2   -6189348.6 
   35500    84.839164   -6201066.6   -6189358.8 
   35600    84.750929   -6200997.3   -6189301.8 
   35700    85.085297   -6201079.6   -6189337.8 
   35800    85.087753   -6201014.5   -6189272.5 
   35900    85.176053   -6201003.6   -6189249.3 
   36000    84.863476   -6200983.6   -6189272.5 
   36100    84.921657   -6200975.2     -6189256 
   36200    85.321038   -6201031.9   -6189257.6 
   36300    84.360132   -6201040.5   -6189398.8 
   36400    84.440516   -6201041.6   -6189388.9 
   36500    84.911018     -6201036   -6189318.3 
   36600    84.736377   -6201098.2   -6189404.6 
   36700    84.544918   -6201094.5   -6189427.3 
   36800    85.050205   -6201103.2   -6189366.3 
   36900    85.012041   -6201087.4   -6189355.7 
   37000    84.880723     -6201110   -6189396.5 
   37100    85.319693   -6201096.7   -6189322.7 
   37200    84.902328   -6201096.1   -6189379.6 
   37300    84.834051   -6201151.9   -6189444.8 
   37400    85.019924   -6201201.5   -6189468.8 
   37500     84.58474   -6201117.5   -6189444.8 
   37600    84.908775   -6201103.9   -6189386.5 
   37700    85.283494   -6201132.1     -6189363 
   37800     85.22244   -6201123.2   -6189362.5 
   37900    85.208309   -6201077.8     -6189319 
   38000    84.514382   -6201092.9     -6189430 
   38100    84.259996   -6201111.4   -6189483.6 
   38200     84.34962     -6201133   -6189492.7 
   38300    84.514826   -6201117.4   -6189454.4 
   38400    85.309211   -6201162.4   -6189389.8 
   38500    84.916188   -6201182.5   -6189464.1 
   38600    84.832751   -6201051.4   -6189344.5 
   38700    85.169401     -6201111   -6189357.7 
   38800     84.89881   -6201060.6   -6189344.6 
   38900    85.100807   -6201095.6   -6189351.7 
   39000    85.010682   -6201157.5   -6189426.1 
   39100    84.750158   -6201133.2   -6189437.8 
   39200    84.162806   -6201119.1   -6189504.7 
   39300     84.94309     -6201146   -6189423.9 
   39400    84.762087   -6201111.4   -6189414.2 
   39500    84.938418   -6201146.2   -6189424.7 
   39600    84.792761   -6201073.2   -6189371.9 
   39700    85.304716   -6201048.4   -6189276.4 
   39800    85.594555   -6201077.5   -6189265.5 
   39900     84.85237   -6201051.6   -6189342.1 
   40000    85.038172   -6201056.9   -6189321.7 
   40100    85.012741     -6201063   -6189331.2 
   40200    84.910056     -6201090   -6189372.5 
   40300    85.481009   -6201128.3     -6189332 
   40400    84.916788   -6201026.7   -6189308.2 
   40500    84.982714   -6200992.8   -6189265.2 
   40600    85.146894   -6201085.3     -6189335 
   40700     84.78302   -6200942.4   -6189242.3 
   40800    84.830744   -6201023.3   -6189316.7 
   40900    84.839373   -6201032.3   -6189324.5 
   41000    85.106619   -6201035.6   -6189290.9 
   41100     84.62157   -6200962.5   -6189284.7 
   41200    84.673821   -6201063.6   -6189378.7 
   41300    84.717999   -6201074.2   -6189383.2 
   41400     84.67414   -6201040.4   -6189355.4 
   41500    84.711469   -6200987.2   -6189297.1 
   41600    84.534524   -6201016.2   -6189350.5 
   41700    85.276163   -6200961.1   -6189193.1 
   41800    85.277546   -6200922.6   -6189154.3 
   41900     85.34776   -6201010.5   -6189232.6 
   42000    84.960665   -6200911.8   -6189187.3 
   42100    84.908665     -6200941   -6189223.6 
   42200    84.944381   -6200934.8   -6189212.6 
   42300    84.895669   -6200964.6   -6189249.1 
   42400    85.226301   -6200930.1   -6189168.9 
   42500    85.470427   -6200918.2   -6189123.3 
   42600    84.710594   -6200988.7   -6189298.7 
   42700    85.318665   -6201002.5   -6189228.6 
   42800    85.040916   -6200952.2   -6189216.6 
   42900    85.052854   -6200928.6   -6189191.3 
   43000    85.347943   -6200972.6   -6189194.6 
   43100    84.656638   -6201003.7   -6189321.1 
   43200    85.401569   -6200989.5   -6189204.1 
   43300    85.299977   -6200952.5   -6189181.2 
   43400    85.407073   -6200968.1     -6189182 
   43500    85.189246   -6200971.3   -6189215.3 
   43600    84.749581     -6200951   -6189255.6 
   43700    85.496726     -6200974   -6189175.5 
   43800    84.877671   -6200983.5   -6189270.5 
   43900    84.407399   -6201027.7   -6189379.5 
   44000    85.342341   -6201021.4   -6189244.2 
   44100    84.957238   -6200981.4   -6189257.3 
   44200    85.036565     -6201003     -6189268 
   44300    84.771808   -6201013.7   -6189315.2 
   44400    85.013293   -6201002.1   -6189270.3 
   44500    84.966237   -6201013.8   -6189288.4 
   44600    84.667571   -6201066.6   -6189382.5 
   44700    84.764526   -6201096.6   -6189399.1 
   44800    84.850008   -6201068.8   -6189359.5 
   44900    84.437816   -6201069.6   -6189417.2 
   45000    84.599116   -6201012.7   -6189338.1 
   45100    85.076253   -6201043.3   -6189302.8 
   45200    85.114191   -6201021.8   -6189276.1 
   45300    84.890272   -6200994.8   -6189279.9 
   45400     85.18597   -6201044.2   -6189288.6 
   45500    85.250175   -6201052.1   -6189287.6 
   45600    85.234492     -6201013   -6189250.6 
   45700     84.77509   -6201000.6   -6189301.7 
   45800    84.632754     -6201039   -6189359.7 
   45900     84.38057   -6201058.7   -6189414.2 
   46000    84.425138   -6201111.6     -6189461 
   46100    84.653037   -6201114.1     -6189432 
   46200    85.044525   -6201098.8   -6189362.7 
   46300    84.913386   -6201141.2   -6189423.2 
   46400    85.012705   -6201061.6   -6189329.9 
   46500     84.60753   -6201048.3   -6189372.5 
   46600     84.52699   -6201035.1   -6189370.4 
   46700    85.223739   -6201007.2   -6189246.3 
   46800    84.617471   -6201070.9   -6189393.8 
   46900    84.875877   -6201007.9     -6189295 
   47000    84.978047   -6201024.4   -6189297.4 
   47100     84.79532   -6200997.5   -6189295.8 
   47200    85.026956   -6200958.3   -6189224.6 
   47300    85.294991   -6200998.6   -6189227.9 
   47400    84.386039   -6200981.4   -6189336.1 
   47500    84.566486   -6201001.9   -6189331.8 
   47600    84.728053   -6201040.4     -6189348 
   47700    85.101383   -6200973.1   -6189229.2 
   47800    84.678456   -6200957.6     -6189272 
   47900    85.006566     -6201098   -6189367.1 
   48000     84.84582   -6201055.3   -6189346.6 
   48100    84.894077   -6201025.7   -6189310.4 
   48200    85.169632   -6201035.5   -6189282.1 
   48300    85.238386   -6201017.7   -6189254.9 
   48400    84.918405   -6200936.9   -6189218.2 
   48500    84.803171   -6200962.1   -6189259.3 
   48600    84.769004   -6200905.5   -6189207.4 
   48700    85.368276   -6201000.4   -6189219.7 
   48800    84.835876   -6200865.6   -6189158.3 
   48900    85.379042     -6200884   -6189101.7 
   49000    84.918306     -6200878   -6189159.3 
   49100    84.865543   -6200913.1   -6189201.7 
   49200    85.093207   -6200877.3   -6189134.5 
   49300    85.197369   -6200820.5   -6189063.3 
   49400    85.173591   -6200856.8   -6189102.9 
   49500    85.003665   -6200881.2   -6189150.8 
   49600    85.224453   -6200952.2   -6189191.3 
   49700    84.847831   -6200884.8   -6189175.8 
   49800    85.161308   -6200952.6   -6189200.4 
   49900      85.2936   -6200984.6   -6189214.1 
   50000    85.154102   -6200974.7   -6189223.5 
   50100    85.365296   -6200993.3   -6189212.9 
   50200    84.725033   -6200982.9   -6189290.8 
   50300    85.126938   -6200969.1   -6189221.6 
   50400    84.761192   -6201055.2   -6189358.2 
   50500    85.439272     -6200958   -6189167.4 
   50600    85.105423   -6200914.3   -6189169.7 
   50700    84.989199   -6200923.8   -6189195.4 
   50800    84.940705   -6201005.3   -6189283.5 
   50900     85.43373   -6201000.1   -6189210.3 
   51000    85.063481   -6200976.8   -6189238.1 
   51100     84.87706     -6200977     -6189264 
   51200    84.851536     -6200958   -6189248.5 
   51300    85.328173   -6200967.4   -6189192.2 
   51400    85.150165   -6200966.6   -6189215.9 
   51500    85.392607   -6200969.8   -6189185.6 
   51600    85.253221     -6200966   -6189201.1 
   51700    85.219051   -6200968.7   -6189208.5 
   51800    85.152114   -6201018.3   -6189267.3 
   51900    85.238573   -6200989.4   -6189226.5 
   52000    85.325151   -6200945.8   -6189170.9 
   52100    85.228063   -6200912.2   -6189150.8 
   52200    84.127513   -6200935.8   -6189326.3 
   52300    84.971541   -6200995.3   -6189269.2 
   52400    85.207589   -6200983.4   -6189224.8 
   52500    84.977001   -6200969.2   -6189242.4 
   52600    85.144074   -6200999.2   -6189249.4 
   52700    85.226861   -6201028.8   -6189267.5 
   52800    84.701346   -6201012.4   -6189323.7 
   52900    85.001969   -6201034.7   -6189304.4 
   53000    84.698825   -6201027.9   -6189339.5 
   53100    84.554766   -6200970.8   -6189302.3 
   53200    85.318166   -6200924.3   -6189150.4 
   53300    85.222095   -6200938.3   -6189177.7 
   53400    85.013466   -6200969.1   -6189237.3 
   53500    85.282289   -6200988.6   -6189219.7 
   53600    85.346363   -6200950.1   -6189172.4 
   53700    85.391544   -6200936.2   -6189152.2 
   53800    84.556634   -6201001.9   -6189333.1 
   53900    84.383138   -6201022.6   -6189377.8 
   54000    85.353675   -6200926.9   -6189148.1 
   54100     84.50299   -6200985.8   -6189324.4 
   54200    84.726909   -6200913.5   -6189221.2 
   54300    84.851629   -6200940.2   -6189230.7 
   54400    84.855231     -6200902     -6189192 
   54500    84.829227   -6200969.7   -6189263.3 
   54600    84.673252   -6200925.1   -6189240.2 
   54700    84.997601   -6200979.3   -6189249.6 
   54800    84.432058   -6200930.1   -6189278.5 
   54900    85.008248   -6200927.4   -6189196.3 
   55000    85.470102   -6200892.2   -6189097.4 
   55100    84.833332   -6200882.7   -6189175.7 
   55200    84.860072   -6200879.5   -6189168.8 
   55300     84.98265   -6200907.6     -6189180 
   55400    84.950161   -6200828.7   -6189105.6 
   55500    84.943601   -6200832.6   -6189110.4 
   55600    84.864937   -6200896.6   -6189185.3 
   55700    84.809489     -6200921   -6189217.4 
   55800    85.117485   -6200951.5   -6189205.3 
   55900    84.908953   -6200913.7   -6189196.3 
   56000    84.629903   -6200981.8   -6189302.9 
   56100    84.443875   -6200855.3   -6189202.1 
   56200    85.408627   -6200928.8   -6189142.5 
   56300    85.243639     -6200890   -6189126.4 
   56400    85.574779   -6200859.2   -6189049.9 
   56500    85.251627   -6200862.2   -6189097.5 
   56600     85.10396     -6200873   -6189128.7 
   56700    85.185139   -6200893.9   -6189138.4 
   56800    84.769881   -6200790.1   -6189091.9 
   56900    85.305178     -6200846   -6189073.9 
   57000    85.301319   -6200913.6   -6189142.1 
   57100    85.145157   -6200918.2   -6189168.2 
   57200    84.925668   -6200841.7     -6189122 
   57300    84.642717   -6200952.1   -6189271.5 
   57400     84.86743   -6200925.7   -6189214.1 
   57500    85.299394   -6200954.3     -6189183 
   57600    84.626176   -6200954.5   -6189276.1 
   57700    85.210607   -6200977.7   -6189218.6 
   57800    84.735513   -6200965.8   -6189272.3 
   57900     84.93251   -6200926.2   -6189205.5 
   58000    84.720906   -6200967.4   -6189275.9 
   58100     85.22973   -6200901.5   -6189139.9 
   58200    84.432991   -6200940.3   -6189288.6 
   58300    85.389145   -6200936.4   -6189152.7 
   58400    85.169486   -6200925.8   -6189172.5 
   58500    85.352777   -6200939.5   -6189160.8 
   58600    84.776464   -6200919.7   -6189220.6 
   58700    84.826703   -6200900.6   -6189194.6 
   58800    84.984251   -6200882.8   -6189155.1 
   58900    85.051158   -6200910.4   -6189173.4 
   59000    84.958431   -6200950.6   -6189226.4 
   59100    84.719077   -6200943.3   -6189252.1 
   59200    84.895534   -6200915.9   -6189200.4 
   59300    85.040672   -6200862.4   -6189126.8 
   59400    85.703788   -6200921.2   -6189094.1 
   59500    85.557996   -6200896.2   -6189089.2 
   59600    85.132692   -6200823.2   -6189074.9 
   59700    84.247975   -6200930.1   -6189303.9 
   59800    84.284816   -6200958.1   -6189326.8 
   59900    85.385395   -6200919.9   -6189136.8 
   60000    84.975897   -6200863.9   -6189137.2 
   60100    85.458039   -6200860.1   -6189066.9 
   60200    84.591289   -6200841.4   -6189167.9 
   60300    84.917577   -6200817.8   -6189099.2 
   60400    85.033813   -6200926.8   -6189192.2 
   60500    84.981287     -6200940   -6189212.6 
   60600    85.068077     -6200870   -6189130.6 
   60700    85.112153   -6200888.9   -6189143.5 
   60800     85.05666   -6200920.2   -6189182.5 
   60900    84.867358   -6200900.2   -6189188.6 
   61000    84.759559   -6200876.6   -6189179.8 
   61100    84.913167     -6200891     -6189173 
   61200    84.979185   -6200915.8   -6189188.7 
   61300    85.151003   -6200913.4   -6189162.6 
   61400    84.994125   -6200913.4   -6189184.3 
   61500     84.89989   -6200818.4   -6189102.2 
   61600    85.277078   -6200947.9   -6189179.7 
   61700     85.23384   -6200943.1   -6189180.9 
   61800    85.043461   -6200886.1   -6189150.1 
   61900     84.87459   -6200916.8   -6189204.1 
   62000    85.020348   -6200931.9   -6189199.1 
   62100    85.056792   -6200861.6   -6189123.8 
   62200    84.873785   -6200906.3   -6189193.8 
   62300    85.067585   -6201007.4   -6189268.1 
   62400    84.852378   -6200938.5   -6189228.9 
   62500    85.030167   -6200937.2   -6189203.1 
   62600    85.190714     -6200946   -6189189.7 
   62700    84.787079   -6200945.4   -6189244.8 
   62800    84.582704   -6200912.6   -6189240.3 
   62900    85.601715   -6200919.1   -6189106.1 
   63000    85.466571   -6200936.4   -6189142.1 
   63100    85.164039   -6200951.3   -6189198.7 
   63200    84.712575   -6200830.8   -6189140.5 
   63300    85.086218   -6200901.6   -6189159.8 
   63400    84.804309   -6200925.8   -6189222.9 
   63500    84.496243   -6200912.1   -6189251.7 
   63600    84.911065   -6200925.7     -6189208 
   63700    85.093022   -6200960.8     -6189218 
   63800    84.876549   -6200870.3   -6189157.4 
   63900    84.781013   -6200947.1   -6189247.4 
   64000     84.78375   -6200880.1     -6189180 
   64100    84.757566   -6200853.9   -6189157.4 
   64200    85.062559   -6200846.3   -6189107.7 
   64300    85.114915   -6200869.4   -6189123.5 
   64400    85.618328   -6200903.7   -6189088.4 
   64500    84.964707   -6200942.8   -6189217.7 
   64600    84.524026   -6200931.5   -6189267.2 
   64700    84.877496   -6200987.6   -6189274.5 
   64800    85.899335   -6200910.4   -6189056.4 
   64900    84.792353   -6200949.5   -6189248.2 
   65000    85.154507   -6200877.2   -6189125.9 
   65100    85.209439   -6200970.7   -6189211.8 
   65200    85.092128   -6200924.1   -6189181.5 
   65300    85.378744   -6200984.8   -6189202.5 
   65400     85.37249   -6200924.2   -6189142.8 
   65500     84.96113   -6200883.6     -6189159 
   65600    84.292381   -6200949.8   -6189317.5 
   65700    85.237022   -6201016.8   -6189254.2 
   65800    85.034615   -6200950.6   -6189215.8 
   65900      84.8313   -6200953.6   -6189246.9 
   66000    84.998497   -6201012.4   -6189282.7 
   66100    85.039208   -6201020.5   -6189285.1 
   66200    84.923616   -6200951.4     -6189232 
   66300    85.045331   -6200927.6   -6189191.4 
   66400    85.225255   -6200974.2   -6189213.1 
   66500    85.135451   -6200980.8   -6189232.2 
   66600    85.083924     -6200968   -6189226.5 
   66700     84.86678   -6200979.1   -6189267.5 
   66800    84.978724   -6201008.9   -6189281.8 
   66900    84.861051   -6200975.8     -6189265 
   67000    85.285785   -6200975.3   -6189205.8 
   67100    84.496185   -6200959.7   -6189299.3 
   67200    85.632786   -6200954.5   -6189137.2 
   67300     85.44498     -6200980   -6189188.6 
   67400    84.650788   -6200916.4   -6189234.7 
   67500    84.342073   -6200923.9   -6189284.7 
   67600    84.960948     -6200899   -6189174.4 
   67700    84.802108   -6200940.7     -6189238 
   67800    84.940958     -6200841   -6189119.2 
   67900    84.660503   -6200950.9   -6189267.8 
   68000    84.827758   -6200856.5   -6189150.3 
   68100    84.717811   -6200812.6   -6189121.6 
   68200    85.278278   -6200862.7   -6189094.4 
   68300    85.136661   -6200910.7   -6189161.9 
   68400    84.727875   -6200873.6   -6189181.2 
   68500    85.138393   -6200932.9   -6189183.9 
   68600    84.849058     -6200861   -6189151.8 
   68700    84.957967   -6200826.6   -6189102.4 
   68800    84.717495   -6200814.7   -6189123.7 
   68900    84.577923   -6200828.6   -6189156.9 
   69000    84.986564   -6200912.8   -6189184.7 
   69100     84.73318   -6200838.8   -6189145.7 
   69200    84.235649   -6200809.1   -6189184.6 
   69300    84.410116   -6200828.1   -6189179.5 
   69400    84.657783   -6200882.6   -6189199.9 
   69500    84.793098   -6200893.6   -6189192.2 
   69600    84.660443   -6200815.5   -6189132.4 
   69700    84.637377   -6200847.6   -6189167.7 
   69800    84.790338     -6200836     -6189135 
   69900    84.977984     -6200878   -6189151.1 
   70000    85.485027   -6200846.7   -6189049.8 
   70100    85.023101   -6200932.8   -6189199.6 
   70200    85.225306   -6200887.9   -6189126.9 
   70300    85.151617   -6200919.5   -6189168.6 
   70400    85.078518   -6200890.6   -6189149.8 
   70500    84.582177     -6200936   -6189263.7 
   70600    85.619335   -6200919.3   -6189103.8 
   70700    84.284235   -6200873.2     -6189242 
   70800     84.69774   -6200898.3   -6189210.1 
   70900    85.307817   -6200919.6   -6189147.1 
   71000     84.93486   -6200856.6   -6189135.6 
   71100    85.003008   -6200925.9   -6189195.5 
   71200    85.596827   -6200906.8   -6189094.5 
   71300    85.051329     -6200935     -6189198 
   71400     85.03718   -6200932.8   -6189197.7 
   71500    85.080158   -6200889.6   -6189148.6 
   71600    85.494687   -6200896.5   -6189098.2 
   71700     85.08076   -6200944.5   -6189203.4 
   71800    84.943876   -6200921.7   -6189199.4 
   71900    84.763304     -6200959   -6189261.7 
   72000    84.653773   -6201008.5   -6189326.3 
   72100    85.067657   -6200968.5   -6189229.2 
   72200    85.279706   -6200861.4   -6189092.9 
   72300    84.755088   -6200942.7   -6189246.5 
   72400    84.646102   -6200913.4   -6189232.2 
   72500    85.038077   -6200934.9   -6189199.7 
   72600    84.985202   -6200965.3   -6189237.3 
   72700    85.255324   -6200868.7   -6189103.5 
   72800    85.256769   -6200899.1   -6189133.7 
   72900    85.474856   -6200965.2   -6189169.7 
   73000    84.647356   -6200861.5   -6189180.2 
   73100    85.266207   -6200885.8   -6189119.1 
   73200    85.350434   -6200931.2   -6189152.9 
   73300    85.261025   -6200982.5   -6189216.5 
   73400    84.654741   -6200945.3     -6189263 
   73500    84.596891   -6200944.5   -6189270.1 
   73600    84.920141   -6200948.8   -6189229.8 
   73700    84.941061   -6200987.1   -6189265.3 
   73800    84.516244   -6200825.4   -6189162.2 
   73900    85.285697   -6200869.2   -6189099.8 
   74000    85.481145   -6200915.7   -6189119.4 
   74100    85.173318   -6200893.8   -6189139.9 
   74200    85.006322   -6200880.2   -6189149.4 
   74300    84.481278   -6200910.6   -6189252.2 
   74400    84.531344   -6200855.1   -6189189.8 
   74500    84.557828     -6200856     -6189187 
   74600    84.526138   -6200847.9   -6189183.3 
   74700    85.579819   -6200892.1   -6189082.2 
   74800    84.853768   -6200861.4   -6189151.6 
   74900    84.740271   -6200787.7   -6189093.6 
   75000    85.064485   -6200818.8     -6189080 
   75100    85.037908   -6200849.2     -6189114 
   75200    85.389498   -6200823.2   -6189039.5 
   75300    85.077742   -6200721.2   -6188980.5 
   75400    85.143265   -6200806.7     -6189057 
   75500    85.074327   -6200826.8   -6189086.5 
   75600    85.101858   -6200738.2   -6188994.2 
   75700    85.190419   -6200807.8   -6189051.5 
   75800    85.108981   -6200794.6   -6189049.6 
   75900    85.033378   -6200767.9   -6189033.3 
   76000     84.63467     -6200823   -6189143.5 
   76100      85.0182   -6200746.4     -6189014 
   76200    84.685339   -6200764.2   -6189077.7 
   76300    85.454582   -6200758.3   -6188965.6 
   76400    85.641812   -6200742.1   -6188923.6 
   76500    85.540819   -6200766.5   -6188961.9 
   76600    85.952253   -6200705.2   -6188843.8 
   76700    84.831529   -6200722.4   -6189015.7 
   76800    84.732516     -6200799     -6189106 
   76900    84.646694   -6200728.2     -6189047 
   77000    85.070669   -6200722.5   -6188982.8 
   77100    84.904087   -6200711.6   -6188994.9 
   77200    85.282642   -6200630.9     -6188862 
   77300    84.601822   -6200654.4   -6188979.3 
   77400      85.2041   -6200679.2   -6188921.1 
   77500    84.996575   -6200763.3   -6189033.8 
   77600    84.806044   -6200724.9   -6189021.7 
   77700    85.347682   -6200754.5   -6188976.6 
   77800    84.826676   -6200748.4   -6189042.4 
   77900    85.494427   -6200704.8   -6188906.6 
   78000    84.538876   -6200848.4   -6189182.1 
   78100    85.038295   -6200826.1   -6189090.9 
   78200    84.594855   -6200766.5   -6189092.5 
   78300    84.932603   -6200803.1   -6189082.4 
   78400    85.286075   -6200749.8   -6188980.3 
   78500    84.936247   -6200828.8   -6189107.6 
   78600    84.693862   -6200772.5   -6189084.7 
   78700    85.098668     -6200928   -6189184.4 
   78800    84.881172   -6200818.4   -6189104.8 
   78900    84.893856   -6200877.9   -6189162.6 
   79000    84.969509     -6200888   -6189162.2 
   79100    84.387631   -6200833.2   -6189187.8 
   79200    84.128819   -6200907.3   -6189297.5 
   79300    84.619742   -6200884.3   -6189206.8 
   79400    85.089695   -6200913.8   -6189171.5 
   79500    85.476463   -6200970.2   -6189174.5 
   79600    84.644225   -6200912.8   -6189231.9 
   79700    84.944046   -6200991.9   -6189269.7 
   79800    84.980998   -6201019.2   -6189291.8 
   79900    84.890565   -6200986.6   -6189271.8 
   80000      85.3272   -6200954.7   -6189179.5 
   80100    85.069012   -6200966.2   -6189226.8 
   80200    85.007008   -6200967.7   -6189236.8 
   80300    85.002212   -6200986.8   -6189256.5 
   80400    85.183292   -6200945.9   -6189190.6 
   80500     84.64915   -6200969.9   -6189288.4 
   80600    84.927587   -6200891.9   -6189171.9 
   80700    84.812818   -6200949.9   -6189245.8 
   80800    85.328804   -6200973.2   -6189197.8 
   80900     85.05554   -6200997.1   -6189259.4 
   81000    85.561555   -6200921.8   -6189114.3 
   81100    85.046972   -6200947.3   -6189210.9 
   81200    84.944991   -6200857.6   -6189135.2 
   81300    84.990487   -6200905.6     -6189177 
   81400    85.000899   -6200905.6   -6189175.5 
   81500    85.296923   -6200907.4   -6189136.4 
   81600    84.748817   -6200885.7   -6189190.4 
   81700    84.947821   -6200857.6   -6189134.9 
   81800    84.880555   -6200815.9   -6189102.4 
   81900    84.656353   -6200724.1   -6189041.6 
   82000    84.819164     -6200783     -6189078 
   82100    84.598776   -6200732.6     -6189058 
   82200    84.654239   -6200772.6   -6189090.4 
   82300    85.051204   -6200778.3   -6189041.3 
   82400    84.750696   -6200738.4   -6189042.9 
   82500     85.08277     -6200752   -6189010.6 
   82600    84.569401   -6200678.4   -6189007.9 
   82700     84.57006   -6200719.2   -6189048.6 
   82800    85.084837     -6200732   -6188990.4 
   82900    84.760764   -6200674.7   -6188977.7 
   83000    84.792587   -6200672.4     -6188971 
   83100    84.600745   -6200661.3   -6188986.4 
   83200    84.926037   -6200708.2   -6188988.4 
   83300    85.004682   -6200702.8   -6188972.2 
   83400    84.659683   -6200673.3   -6188990.3 
   83500    84.416073   -6200695.8   -6189046.4 
   83600    84.704625   -6200693.3   -6189004.1 
   83700    84.663413   -6200689.2   -6189005.7 
   83800    85.224979   -6200652.2   -6188891.2 
   83900    85.484582   -6200654.5   -6188857.7 
   84000    85.302381   -6200650.9   -6188879.2 
   84100    84.978016   -6200668.6   -6188941.7 
   84200    85.136949   -6200578.4   -6188829.6 
   84300    84.767245   -6200602.9     -6188905 
   84400    85.024732   -6200736.1   -6189002.8 
   84500    84.980958   -6200662.7   -6188935.4 
   84600    85.263014   -6200693.2   -6188926.9 
   84700    84.391719   -6200704.4   -6189058.4 
   84800    84.611245   -6200676.1   -6188999.7 
   84900    85.213225   -6200630.3   -6188870.9 
   85000    84.848027   -6200674.7   -6188965.7 
   85100    84.893057   -6200587.8   -6188872.6 
   85200    85.242191   -6200677.6   -6188914.2 
   85300    85.261444   -6200631.5   -6188865.5 
   85400    85.354233   -6200663.3   -6188884.4 
   85500     85.08443   -6200697.2   -6188955.6 
   85600    84.851872   -6200746.6   -6189037.1 
   85700    84.656762   -6200729.9   -6189047.3 
   85800    85.038414     -6200707   -6188971.7 
   85900    85.105822   -6200759.6   -6189015.1 
   86000    85.315228   -6200789.2   -6189015.7 
   86100    85.245089   -6200819.7   -6189055.9 
   86200    85.128026   -6200863.1   -6189115.5 
   86300    85.004898   -6200796.6   -6189065.9 
   86400    84.627629   -6200827.4   -6189148.8 
   86500    84.881685   -6200831.5   -6189117.9 
   86600    84.868778     -6200913   -6189201.2 
   86700     85.29705   -6200851.6   -6189080.7 
   86800    85.553497   -6200808.3     -6189002 
   86900    84.708532   -6200809.2   -6189119.4 
   87000    85.494048   -6200912.8   -6189114.7 
   87100    85.015479   -6200866.2   -6189134.1 
   87200    84.623302   -6200880.8   -6189202.8 
   87300    84.691004   -6200841.9   -6189154.6 
   87400    84.473726   -6200794.7   -6189137.3 
   87500     85.35708   -6200866.4   -6189087.1 
   87600    85.318684     -6200891     -6189117 
   87700    85.020468   -6200948.1   -6189215.3 
   87800    85.257196   -6200909.9   -6189144.5 
   87900     85.34631   -6200992.6   -6189214.9 
   88000    84.802754   -6200906.7   -6189203.9 
   88100    85.110062   -6200902.5   -6189157.4 
   88200    85.561829   -6200926.7   -6189119.2 
   88300    85.273374   -6200896.1   -6189128.4 
   88400    84.936855   -6200923.2     -6189202 
   88500    85.033016   -6200919.9   -6189185.4 
   88600    85.019247     -6200890   -6189157.4 
   88700    84.747449     -6200847   -6189151.9 
   88800    85.048331     -6200918   -6189181.4 
   88900    84.842186   -6200926.7   -6189218.5 
   89000    84.955819   -6200892.6   -6189168.7 
   89100    85.538727   -6200882.5   -6189078.2 
   89200    85.322347   -6200806.6   -6189032.2 
   89300     83.87336   -6200864.9   -6189290.4 
   89400    84.639407   -6200810.6   -6189130.4 
   89500    84.843077   -6200883.5   -6189175.1 
   89600    85.014403   -6200796.2   -6189064.3 
   89700    85.367939   -6200691.6   -6188910.9 
   89800    84.761554   -6200804.7   -6189107.6 
   89900    85.278412   -6200753.7   -6188985.3 
   90000    85.039421   -6200665.7   -6188930.3 
   90100    85.095242   -6200710.9   -6188967.8 
   90200    85.527038   -6200632.2   -6188829.5 
   90300    84.889794   -6200712.2   -6188997.4 
   90400    84.132225   -6200703.5   -6189093.3 
   90500    85.197313   -6200695.3   -6188938.1 
   90600    85.101056   -6200646.3   -6188902.4 
   90700    85.011057     -6200734   -6189002.5 
   90800    84.998295   -6200702.3   -6188972.6 
   90900    84.881837   -6200679.8   -6188966.2 
   91000    84.801129   -6200718.8   -6189016.3 
   91100    85.374576   -6200645.4   -6188863.7 
   91200    85.370498   -6200670.8   -6188889.7 
   91300    85.210012   -6200714.9     -6188956 
   91400    84.940101   -6200608.2   -6188886.5 
   91500    84.823896   -6200687.4   -6188981.7 
   91600    84.986775   -6200695.9   -6188967.8 
   91700     85.00432   -6200684.4   -6188953.8 
   91800    85.262048   -6200670.4   -6188904.2 
   91900    84.302613   -6200645.9   -6189012.2 
   92000     84.76216   -6200702.1     -6189005 
   92100    84.222885   -6200742.2   -6189119.5 
   92200    84.999729   -6200737.7   -6189007.8 
   92300    85.372978   -6200756.2   -6188974.8 
   92400    85.069093   -6200757.3   -6189017.8 
   92500    85.169933   -6200680.2   -6188926.8 
   92600    84.402279   -6200723.9   -6189076.5 
   92700    85.178505   -6200699.7   -6188945.1 
   92800    85.124312   -6200677.1     -6188930 
   92900    84.633758   -6200719.3   -6189039.9 
   93000    84.829876   -6200762.4   -6189055.9 
   93100    84.846851   -6200732.7   -6189023.9 
   93200    84.410836   -6200742.9   -6189094.2 
   93300    85.752308   -6200712.2   -6188878.4 
   93400    84.951911     -6200702   -6188978.6 
   93500    85.060358   -6200738.9   -6189000.6 
   93600    84.988792   -6200780.8   -6189052.3 
   93700    84.795504     -6200734   -6189032.3 
   93800    85.037297   -6200768.7   -6189033.6 
   93900     85.23923   -6200759.9   -6188996.9 
   94000    84.564219   -6200795.1   -6189125.2 
   94100     85.08601   -6200781.9     -6189040 
   94200    84.916857   -6200745.7   -6189027.2 
   94300    85.368595   -6200801.6   -6189020.8 
   94400    85.215631   -6200790.6   -6189030.9 
   94500    84.787945   -6200816.6   -6189115.9 
   94600    84.800971   -6200843.6   -6189141.1 
   94700    85.096071   -6200880.1   -6189136.8 
   94800    85.028831   -6200862.8   -6189128.9 
   94900    85.457426   -6200866.5   -6189073.4 
   95000    84.435312   -6200945.7   -6189293.6 
   95100    84.980188   -6200924.6   -6189197.4 
   95200    84.224879   -6200968.2   -6189345.2 
   95300    84.962079   -6200918.4   -6189193.6 
   95400    85.097251   -6200936.6   -6189193.2 
   95500    84.914999   -6200907.7   -6189189.4 
   95600    85.015451   -6200955.4   -6189223.3 
   95700    85.254815   -6200899.8   -6189134.7 
   95800    85.260519   -6200915.7   -6189149.7 
   95900    85.459779   -6200953.1   -6189159.7 
   96000    85.074378   -6200908.5   -6189168.3 
   96100    85.325893   -6200909.9   -6189134.9 
   96200    85.127233   -6200862.2   -6189114.7 
   96300    84.560231   -6200866.7   -6189197.5 
   96400     84.93297   -6200896.5   -6189175.8 
   96500    85.196427   -6200832.6   -6189075.6 
   96600    85.214864     -6200860   -6189100.4 
   96700    85.248426   -6200839.4   -6189075.1 
   96800    85.357992   -6200869.5   -6189090.1 
   96900    84.861791     -6200869   -6189158.2 
   97000    85.494874   -6200869.5   -6189071.2 
   97100    84.546981   -6200872.5     -6189205 
   97200    85.359497     -6200877   -6189097.4 
   97300    84.573414   -6200856.8   -6189185.7 
   97400    84.962974   -6200765.5   -6189040.6 
   97500     84.82982   -6200888.3   -6189181.9 
   97600    85.457584   -6200766.3   -6188973.2 
   97700    84.940157     -6200791   -6189069.3 
   97800    84.803552   -6200791.6   -6189088.7 
   97900    84.846275   -6200837.8     -6189129 
   98000    85.032429   -6200760.8   -6189026.3 
   98100    85.605692   -6200698.5     -6188885 
   98200    84.489817   -6200736.1   -6189076.5 
   98300    85.544607   -6200711.8   -6188906.7 
   98400    85.275616   -6200681.2   -6188913.2 
   98500     84.78284   -6200743.5   -6189043.5 
   98600    85.346749   -6200728.6   -6188950.8 
   98700    84.291846   -6200667.1   -6189034.8 
   98800    84.944944   -6200724.7   -6189002.4 
   98900    85.140553   -6200759.4     -6189010 
   99000    84.942524   -6200710.3   -6188988.3 
   99100    84.682203   -6200670.2   -6188984.1 
   99200    84.788256   -6200716.3   -6189015.5 
   99300    84.162174   -6200681.2   -6189066.9 
   99400    85.660599   -6200719.8   -6188898.7 
   99500    84.823639   -6200731.9   -6189026.3 
   99600    85.541262   -6200669.9   -6188865.3 
   99700    84.558207   -6200679.2   -6189010.2 
   99800    85.252176   -6200730.6   -6188965.8 
   99900    84.862043   -6200687.9     -6188977 
  100000    84.959844   -6200656.6   -6188932.2 
  100100    84.788625   -6200683.5   -6188982.7 
  100200    84.673949   -6200623.9     -6188939 
  100300    85.489496   -6200539.5     -6188742 
  100400    85.052733   -6200648.5   -6188911.3 
  100500    84.540584   -6200633.4   -6188966.9 
  100600     85.23733   -6200609.6   -6188846.9 
  100700    84.978663   -6200539.5   -6188812.5 
  100800    84.336478     -6200725   -6189086.6 
  100900    85.035337   -6200666.7   -6188931.9 
  101000    85.212779   -6200647.3     -6188888 
  101100    85.123994   -6200730.7   -6188983.6 
  101200    85.476968   -6200764.6   -6188968.8 
  101300    85.006759   -6200732.1   -6189001.2 
  101400    85.340199   -6200746.7   -6188969.8 
  101500    85.061173   -6200740.5   -6189002.1 
  101600    84.761289   -6200752.4   -6189055.4 
  101700    84.930215   -6200746.2   -6189025.9 
  101800    84.986613   -6200775.5   -6189047.4 
  101900    84.845283   -6200764.6   -6189055.9 
  102000    84.712001   -6200815.1   -6189124.8 
  102100    85.397021     -6200790   -6189005.3 
  102200     85.14286   -6200827.9   -6189078.3 
  102300    85.482435   -6200784.6   -6188988.1 
  102400    84.910036   -6200807.3   -6189089.7 
  102500    84.824129   -6200885.1   -6189179.4 
  102600    84.773283   -6200864.6     -6189166 
  102700    85.275229   -6200839.6   -6189071.6 
  102800    84.868137   -6200801.7   -6189089.9 
  102900    85.001097   -6200865.7   -6189135.6 
  103000    85.443891   -6200834.1   -6189042.9 
  103100    84.726338   -6200883.7   -6189191.5 
  103200    85.484701     -6200830   -6189033.2 
  103300    84.567859   -6200875.2   -6189204.8 
  103400    85.031537   -6200834.5   -6189100.2 
  103500     85.12812   -6200823.5   -6189075.8 
  103600     85.04513   -6200799.2     -6189063 
  103700    84.651506   -6200778.3   -6189096.5 
  103800    85.202771   -6200847.7   -6189089.7 
  103900    84.803846   -6200810.8   -6189107.9 
  104000    85.555412   -6200823.8   -6189017.2 
  104100    84.611245   -6200839.2   -6189162.8 
  104200    84.652854   -6200816.2   -6189134.1 
  104300    85.282768   -6200869.7   -6189100.7 
  104400    84.826848   -6200774.3   -6189068.3 
  104500    85.500348   -6200849.2   -6189050.2 
  104600    84.970954   -6200765.7   -6189039.7 
  104700    84.765187   -6200795.5     -6189098 
  104800    84.901424   -6200834.6   -6189118.3 
  104900    85.228766   -6200778.1   -6189016.5 
  105000    84.889465   -6200786.1   -6189071.4 
  105100    84.765486   -6200794.6     -6189097 
  105200    85.283097   -6200749.1   -6188980.1 
  105300    84.805206   -6200782.7   -6189079.6 
  105400    84.410779   -6200702.7     -6189054 
  105500    84.847172   -6200743.4   -6189034.5 
  105600    84.924349   -6200727.9   -6189008.3 
  105700    85.065095   -6200761.2   -6189022.3 
  105800    85.255694   -6200675.6   -6188910.4 
  105900    84.953854   -6200758.9   -6189035.3 
  106000    84.899593     -6200726   -6189009.9 
  106100    84.753786     -6200656     -6188960 
  106200    84.828522   -6200604.2   -6188897.9 
  106300    85.139554     -6200647   -6188897.8 
  106400    85.086799   -6200672.9     -6188931 
  106500    85.644218   -6200752.4   -6188933.6 
  106600    85.296652   -6200684.8   -6188913.9 
  106700     84.87667   -6200687.3   -6188974.3 
  106800    85.268558   -6200709.3   -6188942.3 
  106900    85.047861   -6200676.8   -6188940.3 
  107000    85.342881     -6200615   -6188837.7 
  107100    85.354033   -6200662.9   -6188884.1 
  107200    85.475504   -6200649.9   -6188854.3 
  107300    84.960312   -6200694.7   -6188970.3 
  107400    85.492804   -6200641.7   -6188843.7 
  107500    84.818249   -6200648.6   -6188943.7 
  107600    85.149214   -6200544.5     -6188794 
  107700    85.212139   -6200640.1   -6188880.8 
  107800    84.481305     -6200600   -6188941.6 
  107900    85.254406   -6200634.2   -6188869.2 
  108000    85.065896   -6200518.8   -6188779.7 
  108100    85.338685     -6200638   -6188861.3 
  108200    84.333502   -6200608.2   -6188970.2 
  108300    85.173093   -6200629.2   -6188875.3 
  108400    84.346965   -6200600.4   -6188960.5 
  108500    85.420576   -6200675.9   -6188887.9 
  108600    85.109806   -6200614.2   -6188869.1 
  108700    84.779042   -6200564.2   -6188864.7 
  108800    85.007263   -6200671.7   -6188940.7 
  108900    84.956207     -6200637   -6188913.1 
  109000    84.922824   -6200674.7   -6188955.4 
  109100    85.011701   -6200751.9   -6189020.3 
  109200    85.143111   -6200662.5   -6188912.8 
  109300    84.728534   -6200733.9   -6189041.4 
  109400    85.067699   -6200660.4   -6188921.1 
  109500    85.083042   -6200716.9   -6188975.5 
  109600    85.035032     -6200689   -6188954.2 
  109700    84.955309   -6200726.3   -6189002.5 
  109800    85.475957   -6200701.4   -6188905.8 
  109900    85.027135   -6200724.5   -6188990.8 
  110000     84.68231   -6200746.7   -6189060.6 
  110100    85.312454   -6200830.1     -6189057 
  110200    84.900899   -6200764.2   -6189047.9 
  110300    84.794358   -6200715.7   -6189014.1 
  110400    84.510073     -6200706   -6189043.6 
  110500    84.438123   -6200771.4     -6189119 
  110600    85.261402   -6200765.6   -6188999.6 
  110700    84.193796   -6200775.3   -6189156.6 
  110800    84.819256   -6200819.5   -6189114.5 
  110900    85.062896   -6200857.5   -6189118.8 
  111000    85.298801   -6200749.8   -6188978.6 
  111100    84.913765   -6200754.5   -6189036.4 
  111200    84.969544   -6200702.7     -6188977 
  111300    84.739113   -6200888.6   -6189194.6 
  111400    84.764765   -6200844.6   -6189147.1 
  111500    84.749318   -6200802.4     -6189107 
  111600    84.720347   -6200775.8   -6189084.5 
  111700    84.701021   -6200798.1   -6189109.4 
  111800    84.914075   -6200793.2   -6189075.1 
  111900    85.438908   -6200751.1   -6188960.5 
  112000    85.620259   -6200716.4   -6188900.8 
  112100    84.840574     -6200782     -6189074 
  112200    85.296084   -6200809.9   -6189039.1 
  112300    85.084271   -6200770.2   -6189028.6 
  112400    85.068184   -6200773.8   -6189034.4 
  112500    84.771302   -6200755.1   -6189056.7 
  112600    85.288989   -6200705.2   -6188935.3 
  112700    85.083134   -6200741.7   -6189000.3 
  112800    84.925349   -6200789.9   -6189070.2 
  112900    84.927566   -6200711.4   -6188991.4 
  113000       84.915   -6200689.4   -6188971.2 
  113100    84.729127   -6200735.4   -6189042.9 
  113200    84.701252   -6200702.1   -6189013.3 
  113300    84.861754   -6200645.9   -6188935.1 
  113400    84.786275   -6200667.4   -6188966.9 
  113500     85.05613   -6200695.2   -6188957.5 
  113600    84.822737   -6200738.3   -6189032.8 
  113700    84.739178   -6200694.9   -6189000.9 
  113800    85.724298   -6200700.8   -6188870.9 
  113900    84.977279   -6200631.2   -6188904.3 
  114000    84.791091   -6200618.5   -6188917.3 
  114100    84.657792   -6200619.5   -6188936.8 
  114200    84.071958   -6200649.3   -6189047.4 
  114300    84.377679   -6200686.7   -6189042.6 
  114400    84.281941   -6200623.9     -6188993 
  114500    84.709451   -6200623.2   -6188933.3 
  114600    85.495523   -6200669.4     -6188871 
  114700    85.351321   -6200673.4   -6188894.9 
  114800    84.913313   -6200619.1   -6188901.1 
  114900    85.005382   -6200665.5   -6188934.8 
  115000     85.00106   -6200631.5   -6188901.4 
  115100    84.685332   -6200640.2   -6188953.7 
  115200    85.201786   -6200621.7   -6188863.8 
  115300    84.953699   -6200687.8   -6188964.2 
  115400     84.95694     -6200626     -6188902 
  115500    85.227327     -6200620   -6188858.7 
  115600    85.008096   -6200676.9   -6188945.8 
  115700    84.578371   -6200652.7   -6188980.9 
  115800    84.984458   -6200677.5   -6188949.7 
  115900    85.396147   -6200615.2   -6188830.5 
  116000     85.34398     -6200591   -6188813.5 
  116100    85.329923   -6200600.3   -6188824.9 
  116200    85.364446   -6200614.5   -6188834.3 
  116300    85.155574   -6200668.2   -6188916.7 
  116400    85.275233   -6200679.4   -6188911.4 
  116500     84.95486   -6200693.1   -6188969.4 
  116600    85.317843   -6200708.6   -6188934.7 
  116700    84.925804   -6200721.8     -6189002 
  116800    85.098879   -6200727.9   -6188984.3 
  116900    85.020144     -6200731   -6188998.3 
  117000    85.299428   -6200771.5   -6189000.2 
  117100    85.011232   -6200751.8   -6189020.3 
  117200    84.932326   -6200733.1   -6189012.5 
  117300    84.783822   -6200699.1     -6188999 
  117400    84.833172   -6200769.2   -6189062.2 
  117500    84.950186   -6200718.5   -6188995.4 
  117600    85.567916   -6200754.8   -6188946.5 
  117700    84.994785     -6200839   -6189109.8 
  117800    85.201689   -6200785.6   -6189027.8 
  117900    85.596156   -6200667.3     -6188855 
  118000    85.231717   -6200791.7   -6189029.8 
  118100    85.029741   -6200735.6   -6189001.5 
  118200     85.09572   -6200773.9   -6189030.7 
  118300    84.876569   -6200762.7   -6189049.8 
  118400    84.461558   -6200635.4   -6188979.7 
  118500      84.8611   -6200625.5   -6188914.7 
  118600    84.526876   -6200754.1   -6189089.5 
  118700    85.217353   -6200731.8   -6188971.8 
  118800    85.245878   -6200736.3   -6188972.4 
  118900    85.384738   -6200691.3   -6188908.2 
  119000    85.401466   -6200704.5   -6188919.1 
  119100    85.513382     -6200799   -6188998.2 
  119200    85.682302   -6200647.3   -6188823.1 
  119300      85.7448   -6200712.2   -6188879.4 
  119400    85.351014     -6200734   -6188955.6 
  119500    85.042758   -6200707.5   -6188971.7 
  119600    85.345349   -6200725.7   -6188948.1 
  119700    85.476031   -6200731.5   -6188935.8 
  119800    85.088407   -6200674.2   -6188932.1 
  119900     84.55417   -6200686.3   -6189017.9 
  120000    84.603016   -6200666.7   -6188991.5 
  120100    84.974818   -6200737.3   -6189010.8 
  120200    85.118633   -6200680.7   -6188934.3 
  120300    85.229764   -6200768.6   -6189006.9 
  120400    84.957436   -6200704.8   -6188980.7 
  120500    84.670458   -6200626.4   -6188941.9 
  120600    84.988865   -6200666.9   -6188938.5 
  120700    84.756721   -6200600.6   -6188904.2 
  120800    85.103419   -6200648.5   -6188904.2 
  120900    85.340983   -6200686.2   -6188909.2 
  121000      85.0582   -6200634.1   -6188896.1 
  121100    84.523095   -6200669.6   -6189005.4 
  121200    84.666744   -6200714.8   -6189030.8 
  121300    84.990947   -6200639.5   -6188910.8 
  121400    85.406375   -6200650.7   -6188864.6 
  121500    85.346393   -6200599.9   -6188822.1 
  121600    84.631936   -6200695.5   -6189016.3 
  121700    85.313057   -6200638.6   -6188865.5 
  121800    85.088841   -6200587.3     -6188845 
  121900     85.04766   -6200624.2   -6188887.7 
  122000    84.764468   -6200602.2   -6188904.7 
  122100    84.683802   -6200670.6   -6188984.3 
  122200    84.758752   -6200647.1   -6188950.5 
  122300    84.541805   -6200652.6   -6188985.8 
  122400    84.653438   -6200694.2   -6189012.1 
  122500    84.704003   -6200669.6   -6188980.5 
  122600    84.801436   -6200649.2   -6188946.7 
  122700     84.32571   -6200627.7   -6188990.7 
  122800    85.165894   -6200633.6   -6188880.8 
  122900    85.018109   -6200621.4   -6188888.9 
  123000    85.303527   -6200630.4   -6188858.5 
  123100    85.048168   -6200763.9   -6189027.3 
  123200    85.282994   -6200767.3   -6188998.3 
  123300    85.146552   -6200761.4   -6189011.2 
  123400    85.685078   -6200786.7   -6188962.2 
  123500    84.724633   -6200747.3   -6189055.4 
  123600    84.639841   -6200734.3     -6189054 
  123700    84.477654   -6200738.6   -6189080.7 
  123800    85.391775   -6200699.9   -6188915.9 
  123900    85.382347   -6200667.4   -6188884.7 
  124000    85.257679   -6200631.1   -6188865.5 
  124100    85.076537   -6200604.8   -6188864.2 
  124200    85.394731   -6200653.4     -6188869 
  124300    84.575339   -6200596.1   -6188924.7 
  124400    84.843965   -6200687.2   -6188978.7 
  124500    84.953244   -6200685.2   -6188961.7 
  124600    84.979213   -6200646.7   -6188919.6 
  124700    85.316316   -6200739.5   -6188965.9 
  124800    84.799554   -6200784.5   -6189082.2 
  124900    84.909021   -6200790.4     -6189073 
  125000     85.30108   -6200749.4   -6188977.9 
  125100    85.379135   -6200795.9   -6189013.7 
  125200    84.322625   -6200769.2   -6189132.7 
  125300    84.986114   -6200771.4   -6189043.4 
  125400    85.093891   -6200767.3   -6189024.4 
  125500    84.513125   -6200751.4   -6189088.6 
  125600    84.760866   -6200750.9     -6189054 
  125700    84.754366   -6200789.6   -6189093.6 
  125800    84.829896   -6200785.5     -6189079 
  125900    85.442589   -6200749.5   -6188958.4 
  126000    84.813044   -6200681.4   -6188977.2 
  126100     85.24627   -6200741.4   -6188977.5 
  126200    85.259704   -6200714.2   -6188948.4 
  126300    85.321463   -6200789.7   -6189015.4 
  126400    85.103445     -6200775   -6189030.7 
  126500    85.082388   -6200731.2   -6188989.9 
  126600    85.374259   -6200800.4   -6189018.8 
  126700    84.725564   -6200798.6   -6189106.5 
  126800    84.878937     -6200774   -6189060.7 
  126900    85.576931   -6200793.9   -6188984.3 
  127000    84.771926   -6200763.8   -6189065.3 
  127100    85.067906   -6200738.6   -6188999.2 
  127200    84.932416   -6200784.9   -6189064.2 
  127300    85.301599   -6200636.9   -6188865.4 
  127400    85.058111   -6200685.1   -6188947.1 
  127500    84.871531   -6200654.3   -6188942.1 
  127600    84.796321   -6200649.1   -6188947.3 
  127700     84.77969   -6200658.2   -6188958.7 
  127800      85.1446   -6200718.9     -6188969 
  127900    85.242338   -6200740.6   -6188977.2 
  128000    85.371823     -6200701   -6188919.7 
  128100    85.242123   -6200675.5   -6188912.1 
  128200    85.282914   -6200700.8   -6188931.8 
  128300    85.086301   -6200595.6   -6188853.8 
  128400    84.714493   -6200696.4   -6189005.8 
  128500    84.183697   -6200604.7   -6188987.4 
  128600      84.9272   -6200623.6   -6188903.7 
  128700    84.845362   -6200684.5   -6188975.8 
  128800    85.016169   -6200640.1   -6188907.9 
  128900    84.596158     -6200590   -6188915.7 
  129000    84.485994   -6200662.2   -6189003.1 
  129100    84.801861   -6200706.4   -6189003.8 
  129200    85.115858   -6200578.2   -6188832.2 
  129300    84.824362   -6200689.8     -6188984 
  129400    85.059255     -6200564   -6188825.9 
  129500    84.960031   -6200647.3   -6188922.8 
  129600    84.494923     -6200619   -6188958.7 
  129700    84.850098   -6200610.2   -6188900.9 
  129800    85.139492   -6200613.9   -6188864.7 
  129900    84.365201   -6200650.6   -6189008.3 
  130000    84.944292     -6200648   -6188925.7 
  130100    84.942971   -6200630.2   -6188908.1 
  130200    84.818873   -6200654.9   -6188949.9 
  130300    85.090108   -6200638.1   -6188895.7 
  130400     85.35176   -6200727.4   -6188948.9 
  130500    84.524522   -6200560.2   -6188895.9 
  130600    85.261799   -6200669.2   -6188903.1 
  130700     85.45924   -6200625.2   -6188831.8 
  130800    84.541506   -6200734.7     -6189068 
  130900    85.040924   -6200606.3   -6188870.6 
  131000    85.244854   -6200652.7     -6188889 
  131100    85.396536   -6200706.8   -6188922.1 
  131200    84.911181   -6200697.1   -6188979.4 
  131300    84.632162     -6200727   -6189047.8 
  131400    84.475393   -6200646.4   -6188988.8 
  131500    85.323123   -6200601.4   -6188826.8 
  131600    84.658093   -6200672.6   -6188989.8 
  131700    84.591143   -6200649.1   -6188975.6 
  131800    84.868715   -6200683.9   -6188972.1 
  131900    85.406337   -6200644.5   -6188858.5 
  132000    85.143567     -6200616   -6188866.2 
  132100    84.955274   -6200669.9   -6188946.1 
  132200     84.67652   -6200650.6   -6188965.3 
  132300    85.024743     -6200644   -6188910.6 
  132400    84.558722   -6200627.2   -6188958.1 
  132500    85.330598   -6200692.5   -6188916.9 
  132600    84.990623     -6200702   -6188973.4 
  132700    85.056302     -6200674   -6188936.2 
  132800    84.583594   -6200647.1   -6188974.6 
  132900    84.590208   -6200647.4     -6188974 
  133000     85.17716   -6200672.5   -6188918.1 
  133100    84.557292   -6200736.9   -6189068.1 
  133200     84.83521   -6200769.1   -6189061.9 
  133300    84.817626   -6200674.6   -6188969.8 
  133400    84.806773   -6200701.3     -6188998 
  133500    85.111268   -6200716.2   -6188970.9 
  133600    84.230091   -6200668.9   -6189045.2 
  133700    85.429659   -6200749.1   -6188959.8 
  133800    85.172965   -6200686.1   -6188932.3 
  133900    85.549196     -6200699   -6188893.2 
  134000    85.540909   -6200637.7   -6188833.1 
  134100    84.342963   -6200633.9   -6188994.6 
  134200    85.185285   -6200598.6     -6188843 
  134300    85.086399   -6200681.2   -6188939.3 
  134400    84.785155   -6200633.4   -6188933.1 
  134500    84.632346   -6200670.2   -6188990.9 
  134600    84.437546   -6200604.2   -6188951.9 
  134700    85.171972     -6200614   -6188860.3 
  134800    84.176109   -6200641.3   -6189025.1 
  134900    84.729513   -6200692.8   -6189000.1 
  135000    84.752451   -6200635.6   -6188939.8 
  135100    85.020619   -6200684.5   -6188951.7 
  135200    85.347656     -6200621     -6188843 
  135300    84.902667   -6200559.7   -6188843.2 
  135400    85.197574   -6200649.4   -6188892.1 
  135500    84.485621   -6200600.3   -6188941.3 
  135600    84.209342   -6200648.6   -6189027.7 
  135700    85.870369   -6200626.7   -6188776.6 
  135800    85.285711   -6200634.6   -6188865.2 
  135900    84.890344     -6200606   -6188891.2 
  136000    84.669299   -6200511.6   -6188827.3 
  136100    85.308942   -6200617.5   -6188844.9 
  136200    84.512243   -6200575.6   -6188912.9 
  136300    84.752307   -6200552.8     -6188857 
  136400    84.794229   -6200552.5     -6188851 
  136500    85.456612   -6200575.5   -6188782.5 
  136600     84.98097   -6200574.3   -6188846.9 
  136700    84.571395   -6200585.7   -6188914.9 
  136800    84.557853   -6200586.9   -6188917.9 
  136900    84.325008   -6200562.7   -6188925.9 
  137000    85.507685   -6200505.6   -6188705.6 
  137100    85.030328   -6200568.1     -6188834 
  137200    84.980036   -6200568.4   -6188841.2 
  137300    85.119093   -6200583.6   -6188837.2 
  137400    85.414131   -6200591.7   -6188804.6 
  137500     85.20148   -6200596.8   -6188839.1 
  137600     84.70961   -6200564.2   -6188874.3 
  137700     84.99023     -6200581   -6188852.3 
  137800    85.261757   -6200645.2   -6188879.1 
  137900    85.032501   -6200591.9   -6188857.4 
  138000    84.777451   -6200640.7   -6188941.4 
  138100     84.76759   -6200577.6   -6188879.7 
  138200    85.344006   -6200605.5     -6188828 
  138300    84.728391   -6200565.5   -6188873.1 
  138400    84.655244   -6200583.6   -6188901.2 
  138500    84.851953   -6200564.4   -6188854.9 
  138600    84.709703   -6200576.6   -6188886.7 
  138700    84.700913   -6200542.7     -6188854 
  138800    85.021754   -6200672.6   -6188939.6 
  138900    85.050062   -6200722.8   -6188985.9 
  139000    85.180313   -6200717.2   -6188962.3 
  139100    85.246218     -6200634   -6188870.1 
  139200    85.131778   -6200657.8   -6188909.7 
  139300    85.438765     -6200698   -6188907.5 
  139400    85.479238   -6200613.6   -6188817.5 
  139500    85.362734   -6200653.7   -6188873.6 
  139600    85.466703   -6200632.7   -6188838.4 
  139700    85.438305   -6200677.9   -6188887.5 
  139800    84.884469   -6200684.8   -6188970.7 
  139900    84.724921   -6200693.9   -6189001.9 
  140000     84.81688   -6200703.6   -6188998.9 
  140100    84.913235   -6200664.8   -6188946.8 
  140200     85.03414   -6200612.3   -6188877.6 
  140300    84.975942   -6200700.5   -6188973.8 
  140400     84.89208     -6200705     -6188990 
  140500    85.201951   -6200679.5   -6188921.7 
  140600    84.875187   -6200636.5   -6188923.7 
  140700    85.132173   -6200687.2     -6188939 
  140800    84.810026   -6200681.4   -6188977.7 
  140900    84.795572   -6200706.8   -6189005.1 
  141000    84.477049   -6200651.7   -6188993.9 
  141100    85.279417   -6200666.5     -6188898 
  141200    84.254731   -6200649.5   -6189022.3 
  141300    84.731785   -6200704.4   -6189011.4 
  141400    85.003501   -6200700.5     -6188970 
  141500    84.832636   -6200691.8   -6188984.9 
  141600    84.913097   -6200667.1   -6188949.1 
  141700    84.503573   -6200633.8   -6188972.3 
  141800    84.925176   -6200633.3   -6188913.7 
  141900    84.831676   -6200726.5   -6189019.7 
  142000    84.729385   -6200657.7   -6188965.1 
  142100    85.145612   -6200702.9   -6188952.9 
  142200    85.244866   -6200648.3   -6188884.6 
  142300    85.795665   -6200642.3   -6188802.5 
  142400    85.114673   -6200709.6   -6188963.8 
  142500    84.574453   -6200582.3   -6188911.1 
  142600    84.841882   -6200681.1     -6188973 
  142700     84.63864   -6200708.8   -6189028.7 
  142800     84.51016   -6200629.7   -6188967.4 
  142900    84.435888   -6200641.4   -6188989.3 
  143000    84.678216     -6200705   -6189019.4 
  143100    84.493428   -6200691.7   -6189031.6 
  143200     85.25544   -6200646.8   -6188881.6 
  143300    85.353803   -6200621.6   -6188842.8 
  143400     84.82417   -6200614.6   -6188908.9 
  143500    85.034644   -6200660.5   -6188925.7 
  143600    85.397012   -6200697.4   -6188912.7 
  143700    84.710003   -6200727.4   -6189037.4 
  143800    85.486034   -6200703.5   -6188906.4 
  143900    84.991407     -6200688   -6188959.2 
  144000    85.111292   -6200695.4   -6188950.1 
  144100    85.162517   -6200698.2   -6188945.8 
  144200    84.672172   -6200636.3   -6188951.5 
  144300    85.137684   -6200752.4   -6189003.4 
  144400    84.994644   -6200690.9   -6188961.7 
  144500    85.213437   -6200641.5   -6188882.1 
  144600     85.23076     -6200634   -6188872.2 
  144700    85.327477   -6200643.4   -6188868.2 
  144800    84.937813   -6200670.5   -6188949.1 
  144900    84.479513   -6200647.6   -6188989.5 
  145000    84.428889   -6200609.4   -6188958.2 
  145100    84.898617   -6200584.4   -6188868.4 
  145200     84.44496   -6200688.3   -6189034.9 
  145300    85.192096   -6200681.7   -6188925.2 
  145400    84.895191   -6200699.3   -6188983.8 
  145500    85.302607   -6200586.6   -6188814.9 
  145600    84.847997   -6200578.8   -6188869.8 
  145700    85.191921   -6200661.8   -6188905.4 
  145800    85.050111   -6200652.1   -6188915.3 
  145900    84.860444   -6200686.8   -6188976.1 
  146000    84.630772   -6200690.5   -6189011.5 
  146100    84.810359   -6200675.4   -6188971.6 
  146200    84.862083   -6200606.8   -6188895.8 
  146300    85.163696   -6200709.8   -6188957.2 
  146400    84.549219   -6200569.7     -6188902 
  146500    84.751506   -6200605.4   -6188909.7 
  146600    84.987089   -6200597.7   -6188869.5 
  146700    85.382736   -6200592.5   -6188809.8 
  146800    85.402179   -6200574.8   -6188789.3 
  146900    84.896478   -6200544.7     -6188829 
  147000    85.171332   -6200593.9   -6188840.3 
  147100    84.722283     -6200631   -6188939.4 
  147200    85.442707   -6200628.3   -6188837.3 
  147300    84.558632   -6200590.3   -6188921.3 
  147400    85.486632   -6200524.8   -6188727.6 
  147500    85.267536   -6200567.9     -6188801 
  147600    85.168448   -6200559.9   -6188806.7 
  147700    85.003214   -6200564.6   -6188834.2 
  147800    84.904494   -6200559.6   -6188842.8 
  147900    84.924817   -6200591.6     -6188872 
  148000    85.247818   -6200525.1   -6188760.9 
  148100    85.615201   -6200549.2   -6188734.3 
  148200    84.817171   -6200494.5   -6188789.8 
  148300     85.36077   -6200515.1   -6188735.4 
  148400    84.970822     -6200533   -6188807.1 
  148500    84.914973   -6200569.6   -6188851.4 
  148600    84.831567   -6200511.2   -6188804.5 
  148700    85.083116     -6200552   -6188810.6 
  148800    85.217009   -6200575.8   -6188815.9 
  148900    85.608886   -6200593.9   -6188779.9 
  149000    85.324055   -6200580.2   -6188805.5 
  149100     85.26754   -6200620.4   -6188853.5 
  149200    85.248842   -6200569.4   -6188805.1 
  149300     84.97329   -6200519.9   -6188793.6 
  149400     85.34476   -6200651.1   -6188873.6 
  149500    84.653116   -6200613.4   -6188931.3 
  149600    84.690013   -6200585.3   -6188898.1 
  149700    85.159693   -6200541.6   -6188789.6 
  149800    84.706962   -6200604.3   -6188914.8 
  149900    84.865187   -6200610.7   -6188899.4 
  150000    84.806615   -6200565.6   -6188862.3 
  150100      85.1961   -6200632.5   -6188875.4 
  150200    84.528839   -6200617.9     -6188953 
  150300     85.15242   -6200604.2   -6188853.2 
  150400    85.050299   -6200665.2   -6188928.3 
  150500    85.090345   -6200642.5   -6188900.1 
  150600    84.645648   -6200662.1   -6188981.1 
  150700    84.830984   -6200710.3   -6189003.7 
  150800    84.479834   -6200707.2     -6189049 
  150900    84.652071   -6200704.1   -6189022.1 
  151000    85.051529   -6200704.7   -6188967.6 
  151100    84.736692   -6200749.8   -6189056.2 
  151200     84.72641   -6200743.9   -6189051.7 
  151300    84.659357   -6200768.9     -6189086 
  151400    84.410024   -6200696.8   -6189048.3 
  151500    85.161377   -6200734.2     -6188982 
  151600    85.406669   -6200685.7   -6188899.6 
  151700    85.238723   -6200631.5   -6188868.6 
  151800    85.269612   -6200752.7   -6188985.5 
  151900    85.199645   -6200695.1   -6188937.5 
  152000    84.737629   -6200691.3   -6188997.6 
  152100    84.852244   -6200650.5   -6188940.9 
  152200    85.252305   -6200644.6   -6188879.9 
  152300    84.528564   -6200785.5   -6189120.6 
  152400    84.801955   -6200743.9   -6189041.3 
  152500    84.709038   -6200702.3   -6189012.5 
  152600    84.865583   -6200788.4   -6189076.9 
  152700    84.784972   -6200768.8   -6189068.5 
  152800    84.806037   -6200734.3   -6189031.1 
  152900    85.139251   -6200791.7   -6189042.5 
  153000    85.539811   -6200801.3   -6188996.8 
  153100    84.673927   -6200734.3   -6189049.4 
  153200    84.403762   -6200773.7     -6189126 
  153300    84.662454   -6200720.4     -6189037 
  153400    84.369193   -6200761.2   -6189118.2 
  153500    84.737643   -6200695.2   -6189001.4 
  153600    85.055686   -6200750.8   -6189013.2 
  153700    84.895444     -6200707   -6188991.4 
  153800     84.60047   -6200685.2   -6189010.4 
  153900    84.526561     -6200702   -6189037.3 
  154000    85.664005   -6200642.3   -6188820.7 
  154100    85.138396   -6200679.3   -6188930.2 
  154200    85.381566   -6200604.9   -6188822.3 
  154300    84.549023   -6200641.1   -6188973.4 
  154400    84.665572   -6200585.2   -6188901.4 
  154500    84.968538   -6200652.3   -6188926.7 
  154600    84.774135   -6200589.6   -6188890.9 
  154700    84.880577   -6200661.1   -6188947.6 
  154800    84.844215   -6200571.9   -6188863.4 
  154900    85.653236   -6200666.5   -6188846.4 
  155000    85.177045   -6200636.4     -6188882 
  155100    84.620141   -6200664.4   -6188986.8 
  155200    85.216114   -6200591.8     -6188832 
  155300    85.518802   -6200597.5   -6188795.9 
  155400    84.252102     -6200550   -6188923.3 
  155500    84.955164   -6200539.2   -6188815.5 
  155600    84.393869   -6200638.2   -6188991.8 
  155700    85.471872     -6200573   -6188777.9 
  155800    84.400562   -6200583.8   -6188936.6 
  155900    84.957156     -6200685     -6188961 
  156000    84.739801   -6200542.9   -6188848.9 
  156100    84.553458   -6200558.6   -6188890.2 
  156200    84.816814   -6200513.1   -6188808.4 
  156300    84.742507   -6200536.2   -6188841.7 
  156400    85.107705   -6200620.6   -6188875.8 
  156500    84.858505   -6200603.3   -6188892.8 
  156600    84.780519   -6200540.9   -6188841.2 
  156700    85.053895   -6200558.1   -6188820.7 
  156800    84.654087   -6200543.6   -6188861.4 
  156900    84.986723   -6200481.1     -6188753 
  157000    85.064637   -6200521.6   -6188782.7 
  157100    85.265034   -6200589.3   -6188822.8 
  157200    85.259502   -6200611.1   -6188845.3 
  157300    84.599401   -6200583.4   -6188908.8 
  157400    85.032237   -6200570.4   -6188835.9 
  157500      84.8626     -6200608     -6188897 
  157600    85.192739   -6200632.9   -6188876.3 
  157700    84.974415   -6200607.5     -6188881 
  157800    84.621451   -6200579.3   -6188901.5 
  157900     85.31482   -6200666.8   -6188893.4 
  158000    84.742808   -6200570.5     -6188876 
  158100    84.840708   -6200586.4   -6188878.5 
  158200    85.263048   -6200628.8   -6188862.5 
  158300    84.820646   -6200649.7   -6188944.5 
  158400    84.845593   -6200585.4   -6188876.8 
  158500    84.674732   -6200612.5   -6188927.4 
  158600    85.134571   -6200688.4   -6188939.9 
  158700    85.034468   -6200610.7     -6188876 
  158800    85.552734     -6200644   -6188837.8 
  158900    85.091739   -6200613.5   -6188870.9 
  159000    85.027024   -6200605.4   -6188871.7 
  159100    84.808752   -6200583.8   -6188880.3 
  159200    85.275894   -6200675.1     -6188907 
  159300    85.001241   -6200630.5   -6188900.4 
  159400    84.832421   -6200598.1   -6188891.3 
  159500    84.722523   -6200687.4   -6188995.7 
  159600    84.548775   -6200631.4   -6188963.7 
  159700    85.029652     -6200695     -6188961 
  159800    84.647327   -6200657.2   -6188975.9 
  159900    85.366445   -6200670.7   -6188890.2 
  160000     84.69378   -6200595.8   -6188908.1 
  160100    84.671249   -6200665.7   -6188981.1 
  160200    85.187489   -6200625.4   -6188869.5 
  160300    85.276726   -6200694.7   -6188926.5 
  160400    84.895665   -6200640.5   -6188924.9 
  160500    85.274479   -6200703.6   -6188935.8 
  160600     85.58557   -6200716.8     -6188906 
  160700    84.557142   -6200713.9   -6189045.1 
  160800    84.484791   -6200712.7   -6189053.8 
  160900    84.792584   -6200721.3   -6189019.9 
  161000    84.735888   -6200687.5   -6188993.9 
  161100    84.559108     -6200671   -6189001.8 
  161200    85.040792     -6200720   -6188984.4 
  161300    85.032751   -6200714.2   -6188979.7 
  161400    85.300981   -6200677.4   -6188905.9 
  161500    85.272608   -6200668.1   -6188900.6 
  161600    85.406616   -6200572.5   -6188786.5 
  161700    85.133475   -6200538.5   -6188790.1 
  161800    85.122458   -6200611.2   -6188864.4 
  161900    84.919232   -6200582.7   -6188863.9 
  162000    84.848829   -6200580.3   -6188871.2 
  162100    85.340348   -6200523.2   -6188746.2 
  162200    85.726449   -6200527.3   -6188697.1 
  162300    84.710675   -6200562.5   -6188872.4 
  162400    84.682831   -6200638.3   -6188952.1 
  162500    85.401702   -6200595.3   -6188809.9 
  162600    84.959676     -6200575   -6188850.6 
  162700    85.609285   -6200523.4   -6188709.3 
  162800    85.005014   -6200500.2   -6188769.6 
  162900    85.747605   -6200471.4   -6188638.3 
  163000    84.842121   -6200432.8   -6188724.7 
  163100    84.908774   -6200492.6   -6188775.2 
  163200    85.222962   -6200553.8   -6188793.1 
  163300     84.64324   -6200464.7   -6188783.9 
  163400    84.888285   -6200519.3   -6188804.7 
  163500    85.638159   -6200506.9   -6188688.9 
  163600    85.241287   -6200514.1   -6188750.8 
  163700    84.965345     -6200432   -6188706.8 
  163800    85.393496   -6200504.7   -6188720.4 
  163900    85.844256   -6200515.7   -6188669.3 
  164000    85.399902   -6200567.5   -6188782.4 
  164100    84.699455   -6200527.1   -6188838.6 
  164200    84.882589     -6200561   -6188847.3 
  164300    85.367922   -6200537.5   -6188756.8 
  164400    84.581279   -6200574.3   -6188902.1 
  164500    84.707339   -6200554.8   -6188865.3 
  164600    84.990035   -6200528.7   -6188800.1 
  164700    84.917341   -6200587.2   -6188868.7 
  164800    85.054745   -6200522.8   -6188785.3 
  164900    84.862769   -6200616.2   -6188905.2 
  165000    84.810946   -6200582.2   -6188878.3 
  165100    84.529597   -6200599.5   -6188934.4 
  165200    85.181514   -6200594.3   -6188839.3 
  165300    85.397415   -6200632.9   -6188848.1 
  165400    85.006459   -6200587.7   -6188856.8 
  165500     85.18807   -6200594.8   -6188838.9 
  165600    84.796317   -6200503.9   -6188802.1 
  165700    85.463436   -6200540.1   -6188746.2 
  165800    84.375231   -6200592.5   -6188948.8 
  165900    84.782528   -6200584.3   -6188884.3 
  166000    84.937281   -6200536.5   -6188815.1 
  166100    84.824993   -6200601.6   -6188895.8 
  166200    85.060143     -6200526   -6188787.7 
  166300     84.28664   -6200576.8   -6188945.3 
  166400    84.925848   -6200605.3   -6188885.6 
  166500    84.993607   -6200636.4   -6188907.3 
  166600    84.909094   -6200614.1   -6188896.7 
  166700    84.940974   -6200675.3   -6188953.5 
  166800    85.256379   -6200623.6   -6188858.2 
  166900    85.576151   -6200638.1   -6188828.6 
  167000    85.094983   -6200618.4   -6188875.3 
  167100    85.537421   -6200649.9   -6188845.8 
  167200    85.178633   -6200663.7   -6188909.1 
  167300    85.268465   -6200659.6   -6188892.5 
  167400    85.576684   -6200583.3   -6188773.7 
  167500    84.636018   -6200656.5   -6188976.8 
  167600    84.973179   -6200650.9   -6188924.6 
  167700    85.365054   -6200601.4   -6188821.1 
  167800    84.892636   -6200583.1   -6188867.9 
  167900    85.124294   -6200620.9   -6188873.8 
  168000    84.577335   -6200618.8   -6188947.1 
  168100    84.743081   -6200682.7   -6188988.2 
  168200    84.906542   -6200648.1     -6188931 
  168300    85.254743   -6200650.6   -6188885.4 
  168400    85.340076   -6200671.8   -6188894.9 
  168500    85.594601   -6200693.4   -6188881.4 
  168600    84.384787   -6200733.8   -6189088.7 
  168700    84.637435   -6200668.6   -6188988.7 
  168800    84.823069   -6200704.3   -6188998.8 
  168900    84.753231     -6200693   -6188997.1 
  169000     85.04388   -6200711.3   -6188975.3 
  169100    84.684902   -6200704.9   -6189018.4 
  169200    84.579396     -6200688   -6189016.1 
  169300    85.192043   -6200686.9   -6188930.4 
  169400    85.169157   -6200731.4   -6188978.1 
  169500    85.156823   -6200766.2   -6189014.6 
  169600    85.074571   -6200684.1   -6188943.8 
  169700    85.152786   -6200655.4   -6188904.4 
  169800    85.064251   -6200631.3   -6188892.4 
  169900    84.977947   -6200686.5   -6188959.6 
  170000    84.981876   -6200646.4   -6188918.9 
  170100    85.467284   -6200716.2   -6188921.8 
  170200    84.999094   -6200618.2   -6188888.4 
  170300    84.801133   -6200627.6     -6188925 
  170400    85.127044   -6200586.2   -6188838.7 
  170500    85.625867   -6200643.3   -6188826.9 
  170600    84.766583   -6200651.9   -6188954.2 
  170700    84.894639   -6200627.2   -6188911.7 
  170800    84.343673   -6200564.2   -6188924.9 
  170900    84.801418   -6200586.1   -6188883.6 
  171000    84.916272   -6200540.2   -6188821.7 
  171100    84.916816   -6200679.7   -6188961.2 
  171200    85.532445   -6200646.3   -6188842.8 
  171300    85.414698     -6200599   -6188811.8 
  171400    85.534766   -6200594.4   -6188790.6 
  171500    85.271943   -6200505.1   -6188737.6 
  171600    86.166922     -6200500     -6188609 
  171700    85.120051   -6200504.8   -6188758.3 
  171800    84.969777   -6200441.2   -6188715.4 
  171900    85.205213   -6200543.9   -6188785.7 
  172000    84.680751   -6200480.4   -6188794.5 
  172100    85.018753   -6200543.4   -6188810.8 
  172200    84.889391   -6200546.5   -6188831.8 
  172300    84.525896   -6200510.8   -6188846.2 
  172400    84.721348   -6200478.3   -6188786.8 
  172500    84.677535   -6200479.2   -6188793.7 
  172600    84.876572   -6200505.2   -6188792.3 
  172700    84.846725   -6200472.1   -6188763.3 
  172800    85.143189   -6200483.7     -6188734 
  172900    84.960139   -6200566.3   -6188841.8 
  173000    84.521317   -6200472.9     -6188809 
  173100    85.204359   -6200427.4   -6188669.2 
  173200    84.935478   -6200481.5   -6188760.4 
  173300    85.425918   -6200498.2   -6188709.4 
  173400    84.800434   -6200534.8   -6188832.4 
  173500    84.710034   -6200510.5   -6188820.5 
  173600    85.376089   -6200533.8   -6188751.9 
  173700    84.795505   -6200536.6   -6188834.8 
  173800    85.662894   -6200498.3   -6188676.9 
  173900    85.611872   -6200571.8   -6188757.4 
  174000     85.24288   -6200512.9   -6188749.4 
  174100    84.254438   -6200588.9   -6188961.8 
  174200    85.209521   -6200570.3   -6188811.4 
  174300     84.64186   -6200573.2   -6188892.6 
  174400    84.351805   -6200628.4   -6188987.9 
  174500     85.57181   -6200563.2   -6188754.3 
  174600    85.014669   -6200569.4   -6188837.4 
  174700    84.787343     -6200550   -6188849.4 
  174800     84.77809   -6200592.2   -6188892.8 
  174900    84.664788   -6200596.4   -6188912.7 
  175000    85.891911   -6200611.5   -6188758.4 
  175100    84.839121     -6200619   -6188911.2 
  175200    84.259701   -6200578.6   -6188950.8 
  175300    85.590831   -6200525.2   -6188713.7 
  175400    85.515034     -6200597     -6188796 
  175500    85.112742   -6200602.5     -6188857 
  175600     85.26178   -6200572.3   -6188806.2 
  175700    84.661254   -6200564.2   -6188880.9 
  175800    85.278842   -6200597.4     -6188829 
  175900    84.946263   -6200608.7   -6188886.1 
  176000    85.052457   -6200549.4   -6188812.2 
  176100    85.008159   -6200554.7   -6188823.6 
  176200    85.184036   -6200564.3   -6188808.9 
  176300    85.597378   -6200576.8   -6188764.4 
  176400     84.67382   -6200659.2   -6188974.3 
  176500    84.751485   -6200648.5   -6188952.8 
  176600    84.831812   -6200661.7   -6188954.9 
  176700    84.848092   -6200662.8   -6188953.8 
  176800     84.37081   -6200619.8   -6188976.7 
  176900    85.362094   -6200622.5   -6188842.5 
  177000    84.986749   -6200533.7   -6188805.5 
  177100    85.147203     -6200568   -6188817.7 
  177200    85.320624   -6200561.5   -6188787.3 
  177300    85.425202   -6200579.9   -6188791.2 
  177400    85.325299   -6200548.3   -6188773.4 
  177500    84.592727   -6200663.5   -6188989.7 
  177600    85.374059   -6200677.7   -6188896.1 
  177700    85.067993     -6200602   -6188862.6 
  177800    85.184963   -6200596.4   -6188840.9 
  177900    85.154476   -6200667.2   -6188915.9 
  178000    84.478542   -6200627.9   -6188969.9 
  178100    85.058042     -6200647     -6188909 
  178200    84.747354   -6200522.4   -6188827.3 
  178300    84.713748   -6200606.2   -6188915.8 
  178400    84.945095   -6200592.2   -6188869.8 
  178500    84.968354   -6200590.9   -6188865.3 
  178600    84.753627   -6200568.2   -6188872.2 
  178700    84.873948   -6200589.2   -6188876.6 
  178800    85.344646   -6200590.3   -6188812.8 
  178900    84.786945   -6200551.8   -6188851.3 
  179000    85.699418   -6200662.9   -6188836.4 
  179100    84.769538   -6200566.8   -6188868.7 
  179200    84.838305     -6200592   -6188884.4 
  179300    84.604848     -6200537   -6188861.6 
  179400    84.937558   -6200493.9   -6188772.5 
  179500    85.280713   -6200505.2   -6188736.5 
  179600    85.020653   -6200509.5   -6188776.7 
  179700    85.016989   -6200571.3     -6188839 
  179800    85.459183   -6200622.1   -6188828.8 
  179900    85.086186   -6200517.1   -6188775.2 
  180000    84.786878   -6200556.7   -6188856.1 
  180100     84.65572     -6200560   -6188877.6 
  180200    85.384766   -6200594.1   -6188811.1 
  180300     85.72838     -6200592   -6188761.5 
  180400    84.567342   -6200670.2   -6188999.9 
  180500     85.57728   -6200604.9   -6188795.2 
  180600    85.272719   -6200582.7   -6188815.1 
  180700    84.938198   -6200581.7   -6188860.2 
  180800    85.046084   -6200547.7   -6188811.4 
  180900    84.671928   -6200550.8   -6188866.1 
  181000    85.253459   -6200594.4   -6188829.4 
  181100    85.315541   -6200541.8   -6188768.3 
  181200    84.744801   -6200628.3   -6188933.5 
  181300    85.526709   -6200496.6     -6188694 
  181400    84.864117   -6200629.7   -6188918.4 
  181500    85.099645   -6200604.5   -6188860.7 
  181600    84.629227   -6200614.8     -6188936 
  181700    84.996322   -6200607.8   -6188878.4 
  181800    84.990176   -6200589.4   -6188860.8 
  181900     84.82047   -6200633.4   -6188928.2 
  182000    85.152468   -6200591.8   -6188840.8 
  182100    85.182719   -6200610.4   -6188855.2 
  182200    84.938629   -6200614.2   -6188892.7 
  182300    84.781784   -6200592.1   -6188892.3 
  182400    85.122854   -6200619.2   -6188872.3 
  182500    85.050738   -6200570.7   -6188833.7 
  182600    85.343537   -6200576.7   -6188799.3 
  182700    85.608672     -6200622   -6188808.1 
  182800    84.843997     -6200513   -6188804.5 
  182900    84.626289     -6200570   -6188891.7 
  183000    85.363848   -6200561.3   -6188781.2 
  183100    85.402075   -6200532.3   -6188746.8 
  183200    84.845117   -6200525.9   -6188817.3 
  183300     85.25034   -6200549.1   -6188784.5 
  183400     85.26489   -6200539.3   -6188772.8 
  183500    85.341229     -6200490   -6188712.9 
  183600    84.915012     -6200506   -6188787.7 
  183700    84.673852   -6200576.2   -6188891.2 
  183800    84.758047   -6200514.6     -6188818 
  183900    85.186719   -6200543.2   -6188787.5 
  184000    85.060023   -6200558.4   -6188820.2 
  184100    84.949653   -6200587.2   -6188864.2 
  184200    85.201729   -6200518.9   -6188761.1 
  184300    85.102892   -6200563.4   -6188819.2 
  184400    85.047435   -6200541.5     -6188805 
  184500    84.940847   -6200556.1   -6188834.3 
  184600    85.226359   -6200503.6   -6188742.4 
  184700    85.412357   -6200520.2   -6188733.3 
  184800    84.892746   -6200489.6   -6188774.4 
  184900    85.247053   -6200480.5   -6188716.5 
  185000    84.812612   -6200590.3   -6188886.2 
  185100    85.195852   -6200451.9   -6188694.9 
  185200     84.71029   -6200501.4   -6188811.4 
  185300    85.043644   -6200556.9     -6188821 
  185400    85.348874   -6200541.4   -6188763.3 
  185500    85.434915   -6200456.6   -6188666.6 
  185600    85.379435   -6200528.9   -6188746.6 
  185700    85.253223   -6200523.5   -6188758.6 
  185800    84.705852   -6200511.6   -6188822.2 
  185900     84.71264   -6200612.6   -6188922.3 
  186000    84.452729   -6200477.1   -6188822.6 
  186100    84.741146   -6200521.1   -6188826.9 
  186200    85.198089   -6200586.6   -6188829.3 
  186300    84.717848     -6200519   -6188827.9 
  186400    84.874566   -6200624.2   -6188911.5 
  186500    85.529778   -6200534.5   -6188731.4 
  186600    84.350152     -6200507   -6188866.7 
  186700    84.500686   -6200524.4   -6188863.3 
  186800    84.733288   -6200582.3   -6188889.1 
  186900    85.287372   -6200514.6     -6188745 
  187000    84.795727   -6200592.8     -6188891 
  187100    84.368226   -6200486.6   -6188843.8 
  187200    84.913876   -6200578.2   -6188860.1 
  187300     85.46348   -6200575.2   -6188781.3 
  187400    85.859979   -6200583.5   -6188734.9 
  187500     84.82444   -6200560.1   -6188854.3 
  187600    85.540635   -6200544.2   -6188739.7 
  187700    85.525697   -6200551.6   -6188749.1 
  187800    85.651633   -6200567.4   -6188747.5 
  187900    85.135047   -6200664.6     -6188916 
  188000    84.657357   -6200562.8   -6188880.1 
  188100    85.189372   -6200628.7   -6188872.6 
  188200    84.822313   -6200569.3   -6188863.9 
  188300     85.12743   -6200554.3   -6188806.8 
  188400    84.773767   -6200636.5   -6188937.8 
  188500    85.207077   -6200614.8   -6188856.3 
  188600    84.871178   -6200573.9   -6188861.7 
  188700    84.638756   -6200638.7   -6188958.6 
  188800    84.946628   -6200617.4   -6188894.8 
  188900    84.552389   -6200601.4   -6188933.2 
  189000    84.710592   -6200590.2   -6188900.2 
  189100    85.232728   -6200519.8   -6188757.7 
  189200    84.600883     -6200522   -6188847.1 
  189300     85.10615   -6200553.8   -6188809.2 
  189400    84.877153   -6200465.7   -6188752.7 
  189500    85.072392   -6200522.2   -6188782.2 
  189600    84.901429     -6200564   -6188847.7 
  189700    84.742578   -6200592.9   -6188898.4 
  189800    85.257481   -6200588.4   -6188822.9 
  189900    85.403008   -6200531.2   -6188745.6 
  190000    85.062486   -6200568.3   -6188829.7 
  190100    85.169472   -6200575.6   -6188822.3 
  190200    84.488878   -6200501.9   -6188842.5 
  190300    84.367503   -6200571.7     -6188929 
  190400       85.559   -6200653.2   -6188846.1 
  190500    85.343181   -6200609.6   -6188832.3 
  190600    84.994173   -6200634.6   -6188905.5 
  190700    84.900329   -6200585.1   -6188868.9 
  190800    84.606422   -6200535.9   -6188860.2 
  190900      84.4919   -6200558.3   -6188898.4 
  191000    85.155587     -6200636   -6188884.5 
  191100    84.478664     -6200520   -6188861.9 
  191200    85.102351   -6200577.9   -6188833.8 
  191300    84.563011   -6200546.6   -6188876.9 
  191400    84.547304     -6200475   -6188807.5 
  191500     84.94144   -6200505.3   -6188783.4 
  191600    85.072407   -6200528.9   -6188788.9 
  191700    84.742043   -6200497.2   -6188802.8 
  191800     84.42999     -6200512   -6188860.7 
  191900    84.734069   -6200532.4   -6188839.2 
  192000    84.981031   -6200533.8   -6188806.5 
  192100    85.279883   -6200516.4   -6188747.8 
  192200    84.982684   -6200562.5     -6188835 
  192300    85.058457   -6200599.7   -6188861.6 
  192400     85.27424   -6200587.8     -6188820 
  192500    85.504952   -6200571.7     -6188772 
  192600     84.74874   -6200588.6   -6188893.3 
  192700    85.202232   -6200569.7   -6188811.8 
  192800    84.905758     -6200495   -6188778.1 
  192900    85.108977   -6200536.6   -6188791.5 
  193000    84.857378   -6200536.2   -6188825.9 
  193100    84.946361   -6200501.5     -6188779 
  193200    85.174135   -6200488.3   -6188734.3 
  193300    85.006855   -6200588.3   -6188857.4 
  193400    84.615564   -6200554.7   -6188877.7 
  193500    85.072111   -6200568.1   -6188828.2 
  193600    84.930654   -6200531.8   -6188811.4 
  193700    84.956614     -6200572     -6188848 
  193800    85.112882   -6200583.7   -6188838.2 
  193900    84.596375   -6200696.9   -6189022.6 
  194000    84.507407   -6200696.6   -6189034.7 
  194100    84.716835   -6200601.3   -6188910.4 
  194200    84.958334   -6200642.3   -6188918.1 
  194300    84.684116   -6200630.7   -6188944.3 
  194400    84.951651   -6200628.6   -6188905.3 
  194500    84.998921   -6200624.1   -6188894.3 
  194600    84.836113   -6200599.7   -6188892.4 
  194700    85.039196   -6200548.9   -6188813.5 
  194800    85.131004   -6200549.8   -6188801.7 
  194900    85.006685   -6200532.3   -6188801.4 
  195000    84.894175   -6200568.9   -6188853.6 
  195100    84.778488     -6200506   -6188806.6 
  195200    85.452059   -6200510.4   -6188718.1 
  195300    85.328291   -6200498.7   -6188723.5 
  195400    85.085903   -6200589.4   -6188847.6 
  195500    84.854951   -6200547.7   -6188837.7 
  195600    85.068257   -6200539.9   -6188800.5 
  195700    84.829302   -6200504.7   -6188798.3 
  195800    85.386159   -6200520.2     -6188737 
  195900    84.827006   -6200583.2   -6188877.1 
  196000    85.412129   -6200602.4   -6188815.6 
  196100    85.194091     -6200477   -6188720.2 
  196200    85.316332   -6200516.2   -6188742.6 
  196300     85.18966   -6200468.9   -6188712.7 
  196400    85.055383   -6200530.8   -6188793.2 
  196500     84.66557   -6200520.3   -6188836.5 
  196600    85.036146   -6200514.5   -6188779.6 
  196700    84.774085   -6200506.2   -6188807.4 
  196800    84.665194   -6200495.7   -6188811.9 
  196900     84.98189   -6200512.2   -6188784.7 
  197000    84.846088   -6200512.8     -6188804 
  197100    84.967663   -6200505.8   -6188780.3 
  197200    84.743995   -6200544.7     -6188850 
  197300    85.063641   -6200528.1   -6188789.3 
  197400    84.835828   -6200437.7   -6188730.3 
  197500    84.879349   -6200536.5   -6188823.2 
  197600    85.061993   -6200528.1   -6188789.5 
  197700    85.489894   -6200443.9   -6188646.4 
  197800    85.487042   -6200482.6   -6188685.4 
  197900    84.801091   -6200477.7   -6188775.2 
  198000     84.52946   -6200423.7   -6188758.7 
  198100     84.50301   -6200545.2   -6188883.8 
  198200    84.883451   -6200376.7   -6188662.9 
  198300    85.184052   -6200461.4     -6188706 
  198400    85.291819   -6200460.2   -6188689.9 
  198500    84.845068   -6200436.8   -6188728.2 
  198600    84.571489     -6200456   -6188785.2 
  198700    84.533657   -6200493.3   -6188827.7 
  198800    84.653392   -6200587.9   -6188905.8 
  198900     84.58695   -6200565.5   -6188892.5 
  199000    84.855953   -6200512.8   -6188802.7 
  199100    84.643119   -6200487.1   -6188806.4 
  199200    85.041999     -6200550   -6188814.2 
  199300    85.667916   -6200513.8   -6188691.7 
  199400    84.812398     -6200504     -6188800 
  199500     84.88502   -6200545.9   -6188831.8 
  199600    84.604889   -6200595.7   -6188920.2 
  199700    84.706636   -6200532.9   -6188843.5 
  199800    85.268149     -6200546     -6188779 
  199900    85.310279   -6200555.8     -6188783 
  200000    85.012355   -6200552.4   -6188820.7 
Loop time of 21237.5 on 32 procs for 200000 steps with 99577 atoms

Performance: 4.068 ns/day, 5.899 hours/ns, 9.417 timesteps/s
96.7% CPU use with 4 MPI tasks x 8 OpenMP threads

MPI task timing breakdown:
Section |  min time  |  avg time  |  max time  |%varavg| %total
---------------------------------------------------------------
Pair    | 14231      | 15732      | 16985      | 892.0 | 74.08
Neigh   | 923.72     | 1224.8     | 1527.8     | 842.9 |  5.77
Comm    | 2370.3     | 3170.8     | 4804.1     |1718.8 | 14.93
Output  | 35.809     | 35.91      | 36.039     |   1.6 |  0.17
Modify  | 87.013     | 1011.9     | 2154.2     |2397.5 |  4.76
Other   |            | 62.24      |            |       |  0.29

Nlocal:    24894.2 ave 30672 max 19142 min
Histogram: 2 0 0 0 0 0 0 0 0 2
Nghost:    68688 ave 87964 max 49320 min
Histogram: 2 0 0 0 0 0 0 0 0 2
Neighs:    6.87562e+06 ave 7.5996e+06 max 6.16872e+06 min
Histogram: 2 0 0 0 0 0 0 0 1 1

Total # of neighbors = 27502463
Ave neighs/atom = 276.193
Neighbor list builds = 6309
Dangerous builds = 0


Total wall time: 5:54:17
