LAMMPS (3 Mar 2020)
  using 8 OpenMP thread(s) per MPI task
##

############################################################
#####	 	    Argon in tank	   	   #########
############################################################
variable		temperature equal 85.0

units			real
atom_style		atomic
dimension 		3
boundary		p p p

read_data		atomdata
  orthogonal box = (0 0 0) to (1176 39.2 392)
  4 by 1 by 1 MPI processor grid
  reading atoms ...
  115064 atoms
  read_data CPU = 0.169543 secs
#read_restart 		water.restart.mpiio

############################################################
#############INTERACTION PARAMETERS########################
group			film    type 1
55784 atoms in group film
group	   	 	wall    type 2
59280 atoms in group wall

mass           		1 	39.792  ## atomic mass of argon
mass                    2       195.084  ## atomic mass of platinum

neighbor        	2.0 bin
neigh_modify		every 1 delay 1 check yes

################# hybrid potential #######################
#pair_style 		hybrid/overlay lj/cut 18.7 sw

#pair_coeff              * * sw mW.sw mW NULL
#pair_coeff	    	2 2  lj/cut 15.999 2.47 7.0
#pair_coeff		1 2  lj/cut 0.9 2.8140 7.0
################### L-J potential #####################
pair_style             lj/cut  5.5

pair_coeff             1 1  0.24 3.4  18.7
pair_coeff             1 2  0.168 2.72  18.7
pair_coeff             2 2  15.999 2.47  7.0
######################################################

fix	    		f1 wall setforce 0.0 0.0 0.0
thermo			5
min_style 		fire
minimize    		1.0e-5 1.0e-7 200 10000
WARNING: Using 'neigh_modify every 1 delay 0 check yes' setting during minimization (../min.cpp:190)
Neighbor list info ...
  update every 1 steps, delay 0 steps, check yes
  max neighbors/atom: 2000, page size: 100000
  master list distance cutoff = 20.7
  ghost atom cutoff = 20.7
  binsize = 10.35, bins = 114 4 38
  1 neighbor lists, perpetual/occasional/extra = 1 0 0
  (1) pair lj/cut, perpetual
      attributes: half, newton on
      pair build: half/bin/atomonly/newton
      stencil: half/bin/3d/newton
      bin: standard
  Parameters for fire: 
    dmax delaystep dtgrow dtshrink alpha0 alphashrink tmax tmin    integrator halfstepback 
     0.1        20    1.1      0.5   0.25        0.99   10 0.02 eulerimplicit          yes 
Per MPI rank memory allocation (min/avg/max) = 70.07 | 81.13 | 98.83 Mbytes
Step Temp E_pair E_mol TotEng Press 
       0            0   -3833112.9            0   -3833112.9    37990.246 
       5    1981.3248   -4821630.5            0   -4142073.8     24295.55 
      10    3672.3406   -5657791.6            0   -4398248.8    12544.741 
      15    4354.2335     -6126048            0   -4632628.8    5596.2187 
      20     4572.955   -6392306.7            0   -4823870.2    1409.7037 
      25    4601.0989   -6576433.2            0   -4998343.9   -1667.7777 
      30    4198.5682   -6699241.7            0   -5259212.8   -4156.1598 
      35    3612.5697   -6765524.7            0   -5526482.1    -5863.932 
      40    3110.3748   -6802563.6            0   -5735764.3   -6994.5621 
      45    2669.9134   -6828776.7            0   -5913047.2   -7887.6079 
      50    2223.5928   -6846200.5            0   -6083550.5    -8628.829 
      55    1796.5873   -6859653.6            0   -6243458.4   -9285.0921 
      60     1359.735   -6869088.6            0   -6402725.4   -9874.4363 
      65    997.57661   -6875765.7            0     -6533616   -10344.576 
      70    730.23999   -6880339.4            0     -6629881   -10687.824 
      75    550.21505   -6883637.3            0     -6694924    -10926.97 
      80    424.17818   -6886445.6            0   -6740960.6   -11109.332 
      85    310.34121   -6888768.6            0   -6782327.5   -11271.113 
      90    215.26773   -6890678.2            0   -6816845.5   -11407.528 
      95    142.35278   -6892277.6            0   -6843453.3   -11517.667 
     100    87.185182   -6893501.6            0   -6863598.8   -11602.716 
     105    51.870325   -6894461.4            0   -6876670.8   -11663.094 
     110    31.129639   -6895167.7            0   -6884490.8   -11702.808 
     115    20.202451   -6895704.6            0   -6888775.5   -11728.138 
     120    14.308585   -6896130.2            0   -6891222.7   -11745.248 
     124    11.431919   -6896412.5            0   -6892491.6   -11755.381 
Loop time of 25.8234 on 32 procs for 124 steps with 115064 atoms

97.8% CPU use with 4 MPI tasks x 8 OpenMP threads

Minimization stats:
  Stopping criterion = energy tolerance
  Energy initial, next-to-last, final = 
        -3833112.86581     -6896345.85602     -6896412.48223
  Force two-norm initial, final = 110175 36.2171
  Force max component initial, final = 2415.62 0.660126
  Final line search alpha, max atom move = 0 0
  Iterations, force evaluations = 124 125

MPI task timing breakdown:
Section |  min time  |  avg time  |  max time  |%varavg| %total
---------------------------------------------------------------
Pair    | 11.671     | 18.46      | 21.292     |  91.6 | 71.49
Neigh   | 1.9033     | 2.1235     | 2.7073     |  23.2 |  8.22
Comm    | 0.41632    | 4.1102     | 11.721     | 220.3 | 15.92
Output  | 0.01253    | 0.013531   | 0.014344   |   0.7 |  0.05
Modify  | 0.0056214  | 0.0079275  | 0.01122    |   2.7 |  0.03
Other   |            | 1.108      |            |       |  4.29

Nlocal:    28766 ave 36122 max 25287 min
Histogram: 2 0 1 0 0 0 0 0 0 1
Nghost:    76037 ave 96563 max 60525 min
Histogram: 2 0 0 0 0 0 0 1 0 1
Neighs:    8.22734e+06 ave 9.55988e+06 max 5.47862e+06 min
Histogram: 1 0 0 0 0 0 0 0 2 1

Total # of neighbors = 32909364
Ave neighs/atom = 286.009
Neighbor list builds = 10
Dangerous builds = 0


############################################################
#############EQUILIBRATION PARAMETERS######################
velocity 		film create ${temperature} 12345
velocity 		film create 85 12345
compute 		myTemp film temp
fix			1 film nvt temp ${temperature} ${temperature} 100.0
fix			1 film nvt temp 85 ${temperature} 100.0
fix			1 film nvt temp 85 85 100.0
fix_modify   		1 temp myTemp
WARNING: Temperature for fix modify is not for group all (../fix_nh.cpp:1409)

fix	    		f2 wall setforce 0.0 0.0 0.0
velocity		wall set 0.0 0.0 0.0

###########################################################
############### Post parameters############################
thermo_style    	custom step temp pe etotal
thermo_modify	        temp myTemp
WARNING: Temperature for thermo pressure is not for group all (../thermo.cpp:485)
thermo			100
fix            		extra film print 2000 "$(step) $(temp) $(pe)" append iteration_info.dat 			screen no

timestep		5.0
reset_timestep 		0
restart     		100000 water.restart.mpiio
dump			1 all custom 500 thinfilmtank.dat id type x y z
run			300000
Per MPI rank memory allocation (min/avg/max) = 74.2 | 85.27 | 103.5 Mbytes
Step Temp PotEng TotEng 
       0           85   -6896412.5   -6882278.8 
     100    69.779387   -6888836.9   -6877234.1 
     200     86.54201   -6887309.9   -6872919.9 
     300    85.330959   -6887126.7     -6872938 
     400    85.349573   -6886909.8   -6872717.9 
     500    84.771413   -6886695.6     -6872600 
     600    85.359104   -6886337.3   -6872143.9 
     700    84.999702   -6885973.2   -6871839.5 
     800    84.993962   -6885663.5   -6871530.8 
     900    84.553701   -6885441.5     -6871382 
    1000     84.82741   -6885223.4   -6871118.4 
    1100    85.178067   -6884927.7   -6870764.4 
    1200    84.998134   -6884660.9   -6870527.6 
    1300    85.046667   -6884432.5   -6870291.1 
    1400    84.326453   -6884204.9   -6870183.2 
    1500     84.43356   -6883900.5     -6869861 
    1600    84.978279   -6883649.1   -6869519.1 
    1700    85.090534   -6883236.5   -6869087.8 
    1800     85.48723   -6882929.3   -6868714.6 
    1900    85.163112   -6882494.1   -6868333.4 
    2000    84.665108   -6882136.4   -6868058.5 
    2100    84.851426   -6881803.2   -6867694.2 
    2200    84.733071   -6881326.6   -6867237.3 
    2300    84.601135   -6880999.6   -6866932.2 
    2400    84.553182   -6880572.6   -6866513.2 
    2500    84.409734   -6880232.6   -6866197.1 
    2600    84.752247   -6879905.5     -6865813 
    2700    85.141339   -6879533.2     -6865376 
    2800    85.046058   -6879183.4     -6865042 
    2900    84.685936   -6878989.4   -6864907.9 
    3000    85.154164   -6878687.8   -6864528.5 
    3100    84.863193   -6878505.2   -6864394.3 
    3200     84.86808   -6878423.4   -6864311.7 
    3300    85.039926     -6878192   -6864051.7 
    3400    85.110774   -6877997.5   -6863845.4 
    3500     85.31686   -6877990.5   -6863804.2 
    3600     85.19837   -6877830.3   -6863663.6 
    3700    85.094395   -6877760.4     -6863611 
    3800    85.089759   -6877733.8   -6863585.2 
    3900    84.997586   -6877666.9   -6863533.6 
    4000    84.837597   -6877625.3   -6863518.6 
    4100    85.390595   -6877668.2   -6863469.6 
    4200    85.431674   -6877652.5     -6863447 
    4300     84.82254   -6877681.7   -6863577.5 
    4400    84.858054   -6877803.2   -6863693.2 
    4500    85.076031   -6877915.6   -6863769.2 
    4600    85.459408   -6877916.8   -6863706.7 
    4700    85.206051   -6877912.6   -6863744.7 
    4800    84.853045   -6878043.3   -6863934.1 
    4900    84.839696   -6878208.4   -6864101.4 
    5000    85.083304   -6878318.2   -6864170.7 
    5100    85.137899   -6878318.9   -6864162.3 
    5200    84.774805   -6878550.9   -6864454.6 
    5300    85.388908   -6878682.1   -6864483.8 
    5400    84.895943   -6878904.6   -6864788.2 
    5500    84.904658   -6878968.3   -6864850.4 
    5600    84.800695   -6879278.1   -6865177.5 
    5700     84.91375     -6879398   -6865278.7 
    5800    85.238201   -6879742.9   -6865569.6 
    5900    85.492697   -6879864.3   -6865648.7 
    6000    85.216379   -6880207.2   -6866037.5 
    6100    85.389722   -6880331.6   -6866133.1 
    6200    84.860419   -6880645.3   -6866534.8 
    6300    85.125886   -6880971.6     -6866817 
    6400    84.160359     -6881122     -6867128 
    6500    84.996557   -6881392.5   -6867259.4 
    6600    85.283369   -6881723.7   -6867542.9 
    6700    85.166719   -6881905.2   -6867743.8 
    6800    84.974338   -6882186.2   -6868056.8 
    6900    84.771242   -6882426.7     -6868331 
    7000    85.210014   -6882639.3   -6868470.7 
    7100    85.370229   -6882894.5   -6868699.2 
    7200    84.874525   -6883127.6   -6869014.8 
    7300    85.044433   -6883314.3   -6869173.2 
    7400    84.235114   -6883611.2   -6869604.8 
    7500    84.878582   -6883826.8   -6869713.3 
    7600    85.059941   -6883966.2   -6869822.5 
    7700    85.338712   -6884176.1   -6869986.1 
    7800      84.9257   -6884325.9   -6870204.6 
    7900    85.383283   -6884438.9   -6870241.5 
    8000    84.432825   -6884563.2   -6870523.9 
    8100    85.120387   -6884725.9   -6870572.2 
    8200     85.08294   -6884885.4   -6870737.9 
    8300    84.492593   -6884911.9   -6870862.6 
    8400    85.122318   -6885088.7   -6870934.7 
    8500    85.033151   -6885137.5   -6870998.4 
    8600    85.204902     -6885117   -6870949.2 
    8700    84.494781   -6885192.5   -6871142.8 
    8800    84.739356   -6885149.1   -6871058.8 
    8900    84.841065   -6885207.1   -6871099.9 
    9000    84.493845   -6885099.7   -6871050.2 
    9100    85.075431   -6885179.9   -6871033.7 
    9200    84.558227   -6885026.6   -6870966.4 
    9300     85.16052   -6884981.5   -6870821.2 
    9400    85.023001   -6885033.3   -6870895.8 
    9500    85.212781   -6884920.2   -6870751.2 
    9600    85.342973   -6884853.1   -6870662.3 
    9700    85.523822   -6884621.8     -6870401 
    9800     85.02934   -6884545.7   -6870407.1 
    9900    85.063159   -6884416.3   -6870272.1 
   10000    84.539441   -6884202.1     -6870145 
   10100    85.103612   -6884004.7   -6869853.7 
   10200    85.174459   -6883962.8   -6869800.1 
   10300    84.984115   -6883809.6   -6869678.6 
   10400    84.938563   -6883588.9   -6869465.5 
   10500    84.850755     -6883392   -6869283.1 
   10600    84.725337   -6883265.4   -6869177.4 
   10700    84.847933   -6883084.6   -6868976.2 
   10800    84.659623   -6882885.8   -6868808.7 
   10900    85.184168   -6882785.7   -6868621.4 
   11000    84.890411   -6882531.7   -6868416.2 
   11100    84.624252   -6882408.4   -6868337.2 
   11200    84.932955   -6882192.5     -6868070 
   11300    84.915775     -6882061   -6867941.4 
   11400    85.143667   -6881802.3   -6867644.7 
   11500    85.535234   -6881786.2   -6867563.6 
   11600    84.957962   -6881564.1   -6867437.4 
   11700    84.603895     -6881460   -6867392.2 
   11800    85.334872   -6881266.4     -6867077 
   11900    85.121086   -6881187.7   -6867033.9 
   12000    85.670394   -6881026.8   -6866781.7 
   12100    85.202043   -6880912.1   -6866744.9 
   12200    84.907847   -6880839.7   -6866721.4 
   12300    84.860831   -6880675.2   -6866564.7 
   12400    85.234292   -6880641.1   -6866468.5 
   12500    84.967821   -6880650.9   -6866522.6 
   12600    84.751609   -6880520.4     -6866428 
   12700    85.124717   -6880530.9   -6866376.5 
   12800    84.795318   -6880465.2   -6866365.5 
   12900    84.496771     -6880407     -6866357 
   13000    85.233414   -6880409.1   -6866236.6 
   13100    84.639899   -6880361.4   -6866287.6 
   13200    85.534184   -6880441.8   -6866219.3 
   13300    85.076954   -6880441.1   -6866294.7 
   13400    85.092686   -6880426.2   -6866277.1 
   13500    85.825401   -6880497.4   -6866226.5 
   13600    84.456246   -6880485.2   -6866441.9 
   13700    85.273376   -6880534.9   -6866355.7 
   13800    84.680535   -6880632.1   -6866551.6 
   13900    84.957419   -6880708.3   -6866581.7 
   14000    85.234824   -6880773.3   -6866600.6 
   14100    85.133417   -6880887.3   -6866731.5 
   14200    85.164413   -6880904.7   -6866743.7 
   14300    84.937564   -6880985.9   -6866862.6 
   14400    84.600526   -6881188.8   -6867121.6 
   14500    84.817849     -6881178   -6867074.6 
   14600    84.761795   -6881368.9   -6867274.9 
   14700    85.287107   -6881488.1   -6867306.7 
   14800    84.909682     -6881584   -6867465.4 
   14900    85.274388   -6881638.3     -6867459 
   15000    84.729315   -6881823.3   -6867734.6 
   15100    84.971273   -6881925.1   -6867796.2 
   15200    84.872973   -6882100.4   -6867987.8 
   15300    85.456268   -6882176.8   -6867967.3 
   15400    84.897923   -6882312.1   -6868195.4 
   15500    84.951781     -6882374   -6868248.3 
   15600    85.173296   -6882581.2   -6868418.7 
   15700    84.990084   -6882595.9   -6868463.9 
   15800    84.617807   -6882737.3   -6868667.2 
   15900    85.287695   -6882944.1   -6868762.6 
   16000    85.050393   -6882994.4   -6868852.4 
   16100     84.96224   -6883089.8   -6868962.4 
   16200    84.876879   -6883225.1   -6869111.9 
   16300    84.995014   -6883267.7   -6869134.9 
   16400    84.830572   -6883335.8   -6869230.3 
   16500    84.728676   -6883439.4   -6869350.8 
   16600    84.850724   -6883504.6   -6869395.7 
   16700    84.913784   -6883531.4   -6869412.1 
   16800    85.418518   -6883562.1   -6869358.8 
   16900    84.601531     -6883634   -6869566.6 
   17000    84.944184   -6883686.6   -6869562.2 
   17100    84.731936   -6883740.1     -6869651 
   17200    84.701614   -6883738.4   -6869654.4 
   17300    84.730832   -6883774.1   -6869685.2 
   17400    85.159133   -6883678.9   -6869518.8 
   17500    84.706545   -6883715.4   -6869630.5 
   17600    84.884689   -6883774.7   -6869660.2 
   17700    85.017293   -6883741.5   -6869604.9 
   17800    85.281763   -6883680.4   -6869499.9 
   17900    84.853785   -6883664.5   -6869555.1 
   18000    85.435276   -6883603.8   -6869397.8 
   18100    85.479482   -6883608.1   -6869394.7 
   18200    84.822125     -6883553   -6869448.9 
   18300    85.448192   -6883425.5   -6869217.3 
   18400    85.263098     -6883429   -6869251.5 
   18500     85.15803   -6883313.3   -6869153.4 
   18600     84.57588   -6883245.7   -6869182.6 
   18700    85.236475   -6883123.5   -6868950.5 
   18800    84.761626   -6883111.9   -6869017.9 
   18900    84.241745   -6882990.5     -6868983 
   19000    85.302499   -6882894.8   -6868710.8 
   19100    85.352552   -6882878.5   -6868686.2 
   19200     85.05109   -6882758.8   -6868616.6 
   19300    85.079688   -6882763.6   -6868616.7 
   19400    84.987936   -6882606.8   -6868475.1 
   19500    84.577925   -6882581.3   -6868517.8 
   19600    84.658416   -6882535.7   -6868458.8 
   19700    84.680733   -6882393.5   -6868312.9 
   19800     84.85025   -6882317.4   -6868208.6 
   19900    85.110278   -6882173.1   -6868021.1 
   20000    85.129872   -6882060.3   -6867905.1 
   20100    84.638919   -6882001.2   -6867927.5 
   20200    85.716289   -6881959.6   -6867706.8 
   20300    84.942875   -6881824.7   -6867700.5 
   20400    85.339738     -6881804   -6867613.8 
   20500    84.815833   -6881742.6   -6867639.5 
   20600    85.270552   -6881770.7     -6867592 
   20700    84.468703   -6881657.3     -6867612 
   20800     84.31197   -6881592.2     -6867573 
   20900    85.166681   -6881611.4     -6867450 
   21000    85.016916   -6881555.3   -6867418.8 
   21100    84.825367   -6881581.9   -6867477.3 
   21200    84.690727   -6881462.4   -6867380.2 
   21300    84.385897   -6881467.4   -6867435.9 
   21400    84.936965   -6881490.9   -6867367.7 
   21500    84.718043   -6881396.6   -6867309.8 
   21600    84.473295   -6881472.6   -6867426.5 
   21700    84.959061   -6881401.8     -6867275 
   21800    85.218592   -6881401.4   -6867231.4 
   21900     84.72786   -6881525.8   -6867437.4 
   22000    84.813711   -6881473.8   -6867371.1 
   22100    84.690578   -6881608.1   -6867525.9 
   22200    84.703533   -6881587.7   -6867503.3 
   22300    84.799843     -6881606   -6867505.6 
   22400    85.304576   -6881558.9   -6867374.6 
   22500    84.588899   -6881544.6   -6867479.3 
   22600    84.827259   -6881770.3   -6867665.3 
   22700    84.789928   -6881637.9   -6867539.1 
   22800    85.722989     -6881752   -6867498.1 
   22900    84.862946   -6881887.7   -6867776.8 
   23000    85.028453   -6881908.1   -6867769.7 
   23100    84.903371   -6881951.7   -6867834.1 
   23200    84.970613   -6881966.6   -6867837.8 
   23300    85.475401   -6882040.7     -6867828 
   23400    85.325662     -6882029   -6867841.2 
   23500     85.07152   -6882105.8   -6867960.2 
   23600    84.829125   -6882235.6   -6868130.3 
   23700    84.581929   -6882269.9   -6868205.7 
   23800    85.036049   -6882407.3   -6868267.6 
   23900    85.084884   -6882385.5   -6868237.7 
   24000    84.864775   -6882450.4   -6868339.2 
   24100     84.84219   -6882475.2   -6868367.8 
   24200    85.150039   -6882526.8   -6868368.2 
   24300    84.673285   -6882672.2   -6868592.8 
   24400    85.017364   -6882725.2   -6868588.6 
   24500    85.249358     -6882701   -6868525.9 
   24600    85.075884   -6882718.4   -6868572.1 
   24700     85.29449   -6882855.5   -6868672.8 
   24800    84.666115   -6882932.1     -6868854 
   24900    84.920054   -6882888.6   -6868768.2 
   25000    84.545775   -6882920.5   -6868862.3 
   25100    85.073359   -6882967.2   -6868821.4 
   25200    84.808911   -6882994.1   -6868892.2 
   25300    85.026719   -6883047.7   -6868909.6 
   25400    85.181006   -6883093.6   -6868929.8 
   25500    85.140038   -6883104.8   -6868947.9 
   25600    85.043924   -6883032.6   -6868891.6 
   25700    84.859492   -6883119.9   -6869009.6 
   25800    84.787691   -6883145.8   -6869047.4 
   25900    84.754691   -6883103.8   -6869010.9 
   26000    84.651851     -6883120   -6869044.2 
   26100    84.540958     -6883175   -6869117.6 
   26200    84.485572   -6883117.1   -6869068.9 
   26300    84.990905   -6883062.8   -6868930.6 
   26400    84.938911   -6883135.7   -6869012.2 
   26500    85.269243   -6883097.7   -6868919.2 
   26600    84.834491   -6883076.6   -6868970.5 
   26700    84.907856   -6883036.8   -6868918.5 
   26800    85.322144   -6883050.2   -6868862.9 
   26900    85.029438     -6882984   -6868845.4 
   27000    85.150671   -6882954.7     -6868796 
   27100    84.837803   -6882924.8   -6868818.1 
   27200    84.897558   -6882743.8   -6868627.2 
   27300    85.214268   -6882818.6   -6868649.3 
   27400    85.189075   -6882837.3   -6868672.2 
   27500    85.149698   -6882686.9   -6868528.3 
   27600    84.855892   -6882772.8   -6868663.1 
   27700     84.67927   -6882644.8   -6868564.4 
   27800    84.936389   -6882544.7   -6868421.6 
   27900    85.237858   -6882534.8   -6868361.6 
   28000    85.042816     -6882481   -6868340.2 
   28100    85.049436   -6882496.7   -6868354.8 
   28200    85.567702     -6882344     -6868116 
   28300    85.539049     -6882396   -6868172.7 
   28400    85.050904   -6882323.5   -6868181.4 
   28500    85.142683   -6882205.4     -6868048 
   28600    84.546669   -6882223.3     -6868165 
   28700    85.519437   -6882201.1     -6867981 
   28800    85.390744   -6882202.3   -6868003.7 
   28900    84.614371   -6882184.3   -6868114.7 
   29000    85.132471   -6882168.1   -6868012.3 
   29100    84.938953   -6882075.3   -6867951.7 
   29200    85.021818   -6882063.3   -6867925.9 
   29300    85.416458   -6882050.4   -6867847.5 
   29400     85.03976   -6882042.9   -6867902.7 
   29500    85.090192   -6882015.8   -6867867.1 
   29600    84.967765   -6881992.7   -6867864.4 
   29700    84.552048   -6882047.1   -6867987.9 
   29800    85.139859     -6881931   -6867774.1 
   29900    85.011388     -6881995   -6867859.5 
   30000    84.863092   -6881961.2   -6867850.3 
   30100    85.413576   -6882002.5   -6867800.1 
   30200    85.336606   -6881970.4   -6867780.7 
   30300    85.156847     -6881913   -6867753.2 
   30400    85.235542   -6881893.6   -6867720.8 
   30500    85.365022   -6881974.7   -6867780.3 
   30600    85.407043   -6882000.6   -6867799.3 
   30700    84.501713   -6882038.6   -6867987.8 
   30800    85.129275   -6881921.7   -6867766.5 
   30900    85.148848     -6882008   -6867849.6 
   31000    85.385645   -6881922.3   -6867724.5 
   31100    85.600076   -6881970.1   -6867736.6 
   31200    84.312835   -6882045.1   -6868025.7 
   31300    85.356142   -6882017.1   -6867824.2 
   31400    85.415801   -6882097.6   -6867894.8 
   31500    84.751758   -6882133.3   -6868040.9 
   31600    84.971393   -6882058.4   -6867929.4 
   31700     85.01825   -6882178.6   -6868041.9 
   31800    84.753258     -6882201   -6868108.3 
   31900    85.156293   -6882243.3   -6868083.7 
   32000    85.333913   -6882218.4   -6868029.2 
   32100    85.187628   -6882253.9     -6868089 
   32200    85.460564     -6882286   -6868075.7 
   32300    85.203264     -6882297   -6868129.5 
   32400    84.679658   -6882328.9   -6868248.5 
   32500    84.824172   -6882331.7   -6868227.3 
   32600    84.982827   -6882386.6   -6868255.8 
   32700     84.76903   -6882494.9   -6868399.6 
   32800    85.476582   -6882432.2   -6868219.3 
   32900     85.25327   -6882467.5   -6868291.7 
   33000    85.384197   -6882392.7   -6868195.2 
   33100    84.607744   -6882578.4     -6868510 
   33200    85.591002   -6882577.3   -6868345.3 
   33300    85.099051     -6882548   -6868397.9 
   33400    84.802877   -6882636.4   -6868535.5 
   33500    85.311948   -6882656.4   -6868470.9 
   33600    85.387843   -6882690.5   -6868492.3 
   33700    85.078161   -6882660.8   -6868514.2 
   33800     84.84962   -6882654.5   -6868545.9 
   33900    84.937456   -6882748.5   -6868625.2 
   34000    84.574941   -6882718.7   -6868655.7 
   34100    84.641285     -6882728     -6868654 
   34200    84.857525   -6882736.1   -6868626.1 
   34300    84.857868   -6882735.8   -6868625.7 
   34400    85.227495   -6882737.3   -6868565.8 
   34500    84.994498     -6882740   -6868607.3 
   34600    84.690324   -6882688.9   -6868606.7 
   34700    84.371661   -6882791.9   -6868762.7 
   34800    84.714731   -6882797.2   -6868710.9 
   34900    84.663715   -6882774.3   -6868696.5 
   35000    84.485508   -6882707.1     -6868659 
   35100    85.079528   -6882770.7   -6868623.8 
   35200    85.126585   -6882800.7     -6868646 
   35300    84.588816   -6882720.6   -6868655.3 
   35400    84.466849     -6882677   -6868631.9 
   35500    84.766229   -6882732.1   -6868637.3 
   35600    84.953565   -6882630.2   -6868504.3 
   35700    84.809888   -6882660.2   -6868558.2 
   35800     84.64222   -6882691.8   -6868617.6 
   35900     85.23293   -6882649.2   -6868476.8 
   36000      85.1212   -6882554.9   -6868401.1 
   36100     85.28874   -6882504.9   -6868323.2 
   36200    85.143954   -6882562.8   -6868405.2 
   36300    84.954386   -6882540.9   -6868414.8 
   36400    85.053303   -6882570.9   -6868428.4 
   36500     84.80831   -6882414.4   -6868312.6 
   36600     85.20132   -6882438.1   -6868270.9 
   36700    85.188958   -6882348.9   -6868183.8 
   36800    85.321929   -6882375.4   -6868188.2 
   36900    85.108767   -6882357.5   -6868205.7 
   37000    85.186366   -6882271.6   -6868106.9 
   37100    85.571994   -6882329.5   -6868100.7 
   37200    85.072574   -6882302.3   -6868156.6 
   37300    85.294067   -6882206.7   -6868024.2 
   37400    84.901571   -6882202.7   -6868085.4 
   37500      84.9628   -6882188.6   -6868061.1 
   37600    84.846594   -6882177.1   -6868068.9 
   37700    85.176404   -6882229.9   -6868066.9 
   37800    84.988985   -6882101.9   -6867970.1 
   37900    84.565464   -6882203.3   -6868141.8 
   38000    85.144759   -6882161.9   -6868004.2 
   38100    84.892462   -6882210.7   -6868094.9 
   38200    85.329083   -6882183.9   -6867995.5 
   38300    85.112539   -6882208.8   -6868056.4 
   38400    84.454046   -6882173.3   -6868130.4 
   38500     84.60412   -6882191.5   -6868123.7 
   38600    85.653535   -6882083.8   -6867841.5 
   38700    85.023781   -6882061.3   -6867923.6 
   38800    84.701689   -6882016.3   -6867932.3 
   38900    84.670799   -6882091.8   -6868012.9 
   39000    84.477986   -6882001.3   -6867954.4 
   39100    84.770019   -6882075.5     -6867980 
   39200    84.803903   -6882127.3   -6868026.2 
   39300    85.030899     -6882097   -6867958.2 
   39400    85.120756   -6882085.2   -6867931.5 
   39500    85.086603   -6882128.4   -6867980.4 
   39600    84.685475   -6882151.3   -6868069.9 
   39700      85.5221   -6882194.4   -6867973.9 
   39800    84.549565   -6882181.2   -6868122.4 
   39900    84.848249   -6882181.7   -6868073.2 
   40000    84.954916   -6882305.7   -6868179.5 
   40100    84.736457   -6882309.6   -6868219.8 
   40200     84.89874     -6882285   -6868168.2 
   40300    84.892434   -6882329.9   -6868214.1 
   40400    84.975713   -6882334.6     -6868205 
   40500    84.892873   -6882299.4   -6868183.5 
   40600    84.710895   -6882245.1   -6868159.5 
   40700    85.257351   -6882273.9   -6868097.5 
   40800    84.721412   -6882416.7   -6868329.4 
   40900    84.948347   -6882313.7   -6868188.6 
   41000    84.851029   -6882361.2   -6868252.3 
   41100    84.814079   -6882447.4   -6868344.6 
   41200    85.114256   -6882444.7   -6868292.1 
   41300    84.946589   -6882428.6   -6868303.8 
   41400    85.097246   -6882349.6   -6868199.7 
   41500      85.1588   -6882508.7   -6868348.7 
   41600    85.096971   -6882499.3   -6868349.5 
   41700    85.252004   -6882460.2   -6868284.7 
   41800    85.629048   -6882504.7   -6868266.4 
   41900    85.045883   -6882505.9   -6868364.6 
   42000    85.398035     -6882462   -6868262.2 
   42100    85.028244   -6882450.2   -6868311.8 
   42200    85.150991   -6882466.6   -6868307.8 
   42300    84.655246   -6882520.2   -6868443.9 
   42400    84.761286   -6882527.1   -6868433.1 
   42500    84.697974   -6882510.5     -6868427 
   42600    85.215173   -6882453.2   -6868283.7 
   42700    85.387317   -6882448.5   -6868250.5 
   42800    85.173856   -6882452.8   -6868290.2 
   42900    85.172945   -6882567.3   -6868404.9 
   43000    84.708087   -6882455.3   -6868370.2 
   43100    84.744371   -6882460.7   -6868369.5 
   43200     84.73139   -6882472.7   -6868383.7 
   43300    84.901893   -6882460.5   -6868343.1 
   43400    85.098632   -6882413.9   -6868263.8 
   43500    84.767853   -6882480.2   -6868385.1 
   43600    84.685934   -6882470.4   -6868388.9 
   43700    84.769398   -6882435.5   -6868340.2 
   43800    85.120024   -6882393.8   -6868240.2 
   43900    84.622653   -6882402.6   -6868331.7 
   44000    84.892413   -6882356.4   -6868240.6 
   44100    84.692553   -6882449.3   -6868366.8 
   44200    85.282846     -6882360   -6868179.3 
   44300     84.49237   -6882348.9   -6868299.6 
   44400     85.31844   -6882317.3   -6868130.7 
   44500    84.768203   -6882268.5   -6868173.4 
   44600    85.017528     -6882284   -6868147.4 
   44700    85.292343   -6882248.7   -6868066.4 
   44800    85.076039   -6882232.5   -6868086.2 
   44900    85.498542   -6882218.5     -6868002 
   45000    85.037565     -6882263   -6868123.1 
   45100    85.450127   -6882201.3   -6867992.8 
   45200    85.460548   -6882113.2   -6867902.9 
   45300    85.447961   -6882216.7   -6868008.6 
   45400    85.024865   -6882217.2   -6868079.4 
   45500    85.016765   -6882148.7   -6868012.3 
   45600    85.669506   -6882276.5   -6868031.5 
   45700    85.247026   -6882229.1   -6868054.4 
   45800    85.544074   -6882212.6   -6867988.4 
   45900    85.093519     -6882114   -6867964.8 
   46000    85.144027   -6882067.9   -6867910.3 
   46100    84.806679   -6882089.8   -6867988.3 
   46200    84.599353   -6882149.8   -6868082.8 
   46300    85.458419   -6882057.9     -6867848 
   46400    85.131538   -6882150.5     -6867995 
   46500    84.962235   -6882024.8   -6867897.5 
   46600    85.283882     -6882069   -6867888.1 
   46700    85.505795   -6882137.9   -6867920.1 
   46800     85.40169   -6882058.3   -6867857.8 
   46900    85.406424   -6882069.8   -6867868.5 
   47000    85.187938   -6882062.3   -6867897.4 
   47100    85.445826   -6882125.2   -6867917.3 
   47200    85.104071   -6882157.9   -6868006.9 
   47300    84.797215     -6882021     -6867921 
   47400    85.070193     -6882110   -6867964.6 
   47500    84.991148   -6882145.5   -6868013.3 
   47600    85.369676   -6882163.2   -6867968.1 
   47700    85.262912   -6882186.7   -6868009.3 
   47800    84.906411   -6882182.4   -6868064.3 
   47900    84.939284   -6882185.9   -6868062.3 
   48000    84.999098   -6882212.2   -6868078.6 
   48100    85.282237   -6882232.4   -6868051.8 
   48200    84.965124   -6882170.3   -6868042.4 
   48300    85.246402   -6882115.9   -6867941.3 
   48400    85.281115   -6882181.2   -6868000.8 
   48500    84.867374   -6882200.7   -6868089.1 
   48600    84.763837   -6882229.6   -6868135.2 
   48700    84.652762   -6882286.9     -6868211 
   48800    84.855945   -6882237.3   -6868127.6 
   48900      85.1861   -6882326.6     -6868162 
   49000    85.167126   -6882226.4   -6868064.9 
   49100    85.052535   -6882247.1   -6868104.6 
   49200    85.186306   -6882262.2   -6868097.5 
   49300    85.415783   -6882281.8     -6868079 
   49400    85.000055   -6882374.3   -6868240.6 
   49500    85.050645   -6882255.3   -6868113.2 
   49600    84.829472   -6882275.7   -6868170.4 
   49700    84.811039   -6882292.7   -6868190.5 
   49800    85.170079   -6882268.8   -6868106.8 
   49900    84.604918   -6882313.6   -6868245.6 
   50000    85.127486   -6882321.7   -6868166.9 
   50100    84.707981   -6882354.8   -6868269.6 
   50200    84.501524   -6882303.3   -6868252.5 
   50300    84.928652   -6882358.2   -6868236.4 
   50400    84.814868   -6882437.8   -6868334.9 
   50500    84.676345   -6882445.6   -6868365.8 
   50600    85.052157   -6882374.2   -6868231.9 
   50700    85.099208   -6882459.5   -6868309.4 
   50800    85.225153   -6882394.6   -6868223.5 
   50900    84.959481   -6882464.9     -6868338 
   51000    84.539945   -6882403.1   -6868345.9 
   51100    84.855831   -6882446.1   -6868336.4 
   51200    84.698231   -6882391.5     -6868308 
   51300    84.758797   -6882429.2   -6868335.6 
   51400    85.330356   -6882378.9   -6868190.3 
   51500    84.969897   -6882438.7     -6868310 
   51600    84.837926   -6882427.3   -6868320.6 
   51700    84.749473   -6882303.8   -6868211.8 
   51800    84.797713   -6882409.4   -6868309.4 
   51900    84.658436   -6882409.7   -6868332.9 
   52000    84.758087   -6882366.6   -6868273.2 
   52100    85.138899   -6882409.3   -6868252.6 
   52200    85.311283   -6882386.6   -6868201.1 
   52300    85.352471   -6882362.4   -6868170.1 
   52400    85.305515   -6882390.4   -6868205.9 
   52500    85.103627   -6882368.4   -6868217.4 
   52600    85.099721   -6882347.2     -6868197 
   52700    85.322472   -6882325.6   -6868138.3 
   52800    85.471474   -6882288.5   -6868076.4 
   52900    85.490952   -6882300.7   -6868085.4 
   53000    85.211962   -6882235.8   -6868066.9 
   53100    84.961189   -6882274.7   -6868147.5 
   53200    85.337468   -6882218.5   -6868028.8 
   53300    84.991417   -6882151.8   -6868019.5 
   53400    84.839663   -6882128.8   -6868021.8 
   53500    85.119122   -6882235.6   -6868082.1 
   53600    84.515516   -6882162.1     -6868109 
   53700    84.817219   -6882191.4   -6868088.2 
   53800    84.763033   -6882136.5   -6868042.3 
   53900    85.012661   -6882181.3   -6868045.5 
   54000    84.940704     -6882178   -6868054.2 
   54100    84.707724   -6882199.2   -6868114.1 
   54200    84.581522   -6882160.8   -6868096.7 
   54300    84.949415   -6882042.6   -6867917.4 
   54400     84.94195   -6882151.3   -6868027.3 
   54500    85.059925   -6882071.5   -6867927.8 
   54600    85.068183   -6882104.6   -6867959.6 
   54700    84.946462   -6882106.5   -6867981.8 
   54800    84.791689   -6882016.5   -6867917.4 
   54900    84.900369     -6882088   -6867970.9 
   55000    85.204098     -6882049   -6867881.4 
   55100    84.803388   -6882061.3   -6867960.3 
   55200    84.882291   -6882037.6   -6867923.5 
   55300    84.765578   -6882106.3   -6868011.6 
   55400    84.659543   -6882061.4   -6867984.3 
   55500    85.085528   -6882033.1   -6867885.2 
   55600     85.03279   -6882011.7   -6867872.6 
   55700    85.110553   -6882074.1   -6867922.1 
   55800    84.679144   -6881991.4   -6867911.1 
   55900    85.081113   -6882026.4   -6867879.2 
   56000    84.967201   -6882072.7   -6867944.5 
   56100    84.989401   -6882096.2   -6867964.3 
   56200    84.665494   -6882002.3   -6867924.3 
   56300    85.030057   -6882066.3   -6867927.6 
   56400     84.61294   -6881956.2   -6867886.9 
   56500    85.260977   -6882122.6   -6867945.6 
   56600    85.379251   -6882052.9   -6867856.2 
   56700    85.295951   -6882126.5   -6867943.6 
   56800    84.989375   -6882044.7   -6867912.8 
   56900    85.310128   -6882064.8   -6867879.6 
   57000    85.182659   -6882125.7   -6867961.7 
   57100    84.984987     -6882091   -6867959.9 
   57200    84.924606   -6882158.3   -6868037.2 
   57300    85.218218   -6882156.6   -6867986.7 
   57400    85.412659   -6882136.8   -6867934.5 
   57500    85.145514   -6882211.2   -6868053.4 
   57600    85.046817     -6882132   -6867990.6 
   57700    85.031172   -6882103.4   -6867964.5 
   57800    85.159532   -6882111.9   -6867951.7 
   57900    84.900641   -6882218.4   -6868101.2 
   58000    84.444527   -6882167.4   -6868126.1 
   58100    84.888338   -6882208.1     -6868093 
   58200    85.133696   -6882176.3   -6868020.4 
   58300    84.998042   -6882140.7   -6868007.3 
   58400    84.869742   -6882193.2   -6868081.2 
   58500    85.283449   -6882192.9   -6868012.1 
   58600     85.20326   -6882271.7   -6868104.2 
   58700    85.235176   -6882151.6   -6867978.8 
   58800    84.789446   -6882276.8   -6868178.1 
   58900    84.947201   -6882304.7   -6868179.8 
   59000    85.244808   -6882277.1   -6868102.7 
   59100    85.136154     -6882275   -6868118.7 
   59200    85.475225   -6882266.5   -6868053.8 
   59300    84.894533   -6882348.7   -6868232.5 
   59400    84.818328   -6882323.1   -6868219.6 
   59500    85.230744   -6882329.3   -6868157.3 
   59600    84.709359   -6882285.6   -6868200.3 
   59700    84.622204   -6882276.1   -6868205.3 
   59800    85.476314   -6882272.9   -6868060.1 
   59900    85.054389   -6882273.4   -6868130.6 
   60000    84.997997   -6882298.6   -6868165.3 
   60100    85.250179     -6882293   -6868117.7 
   60200    84.801779   -6882268.1   -6868167.4 
   60300    84.821692   -6882222.6   -6868118.6 
   60400    84.657229   -6882250.8   -6868174.1 
   60500    84.985605   -6882277.9   -6868146.6 
   60600    84.999587   -6882275.6     -6868142 
   60700     85.28052   -6882232.3     -6868052 
   60800    85.021084   -6882223.3   -6868086.1 
   60900    84.324732   -6882193.3   -6868171.9 
   61000    84.963901   -6882308.4   -6868180.7 
   61100    84.841787   -6882218.6   -6868111.2 
   61200    85.348435   -6882311.6     -6868120 
   61300     84.49202   -6882219.9   -6868170.7 
   61400    85.457658   -6882293.4   -6868083.6 
   61500    84.595391   -6882279.7   -6868213.3 
   61600    84.673638   -6882305.6   -6868226.2 
   61700    84.433802     -6882205   -6868165.5 
   61800    85.310702   -6882180.5   -6867995.2 
   61900      84.6113   -6882091.3   -6868022.3 
   62000    85.139854   -6882119.5   -6867962.5 
   62100    85.131313   -6882150.3   -6867994.8 
   62200    84.888739   -6882123.2     -6868008 
   62300    85.027849   -6882132.8   -6867994.5 
   62400    84.896414   -6882042.7   -6867926.3 
   62500    84.845093   -6882053.5   -6867945.6 
   62600    85.277317   -6882052.2   -6867872.4 
   62700    85.151478   -6882063.4   -6867904.6 
   62800    85.270579     -6882125   -6867946.3 
   62900    84.859616   -6882124.5   -6868014.2 
   63000    84.489482   -6882095.3   -6868046.6 
   63100    85.347236   -6882105.6   -6867914.2 
   63200    84.513217   -6882060.8   -6868008.1 
   63300    85.391836   -6882075.7   -6867876.9 
   63400     84.79776   -6882069.9   -6867969.8 
   63500     84.89526   -6882097.2     -6867981 
   63600    84.574905   -6882046.3   -6867983.3 
   63700    85.193758   -6882104.8   -6867938.9 
   63800    84.604276   -6882012.1   -6867944.2 
   63900    85.295011   -6881982.6   -6867799.9 
   64000    85.145316   -6882077.3   -6867919.4 
   64100      84.7413     -6882091   -6868000.3 
   64200    84.615243     -6882122   -6868052.3 
   64300     84.87129   -6882076.8   -6867964.6 
   64400    85.154984   -6882034.1   -6867874.7 
   64500    85.187045   -6882043.3   -6867878.5 
   64600    84.649066   -6882081.9   -6868006.6 
   64700    84.766313   -6882020.7   -6867925.8 
   64800    84.884829     -6882045   -6867930.4 
   64900    84.791188     -6882030   -6867931.1 
   65000    85.360354   -6882038.6     -6867845 
   65100    85.116674   -6882008.9   -6867855.8 
   65200    85.329444     -6882124   -6867935.5 
   65300    84.928676     -6882042   -6867920.2 
   65400    84.831714   -6882061.6     -6867956 
   65500    84.310324   -6882057.6   -6868038.6 
   65600    84.532444     -6882126   -6868070.1 
   65700    84.853815   -6882079.8   -6867970.4 
   65800    85.007052   -6882084.3   -6867949.5 
   65900    84.902363   -6882087.2   -6867969.7 
   66000    84.842122   -6882074.6   -6867967.1 
   66100    85.392943   -6882045.5   -6867846.4 
   66200     84.70695   -6882063.3   -6867978.3 
   66300    84.523556   -6882050.3   -6867995.9 
   66400    85.392253   -6882137.4   -6867938.5 
   66500    84.913774   -6882093.3   -6867973.9 
   66600    85.410475   -6882141.1   -6867939.2 
   66700    85.228094   -6882113.8   -6867942.2 
   66800    85.207056   -6882058.7   -6867890.6 
   66900    84.906406   -6882147.1     -6868029 
   67000    85.267482   -6882116.9   -6867938.8 
   67100     84.94679   -6882087.7   -6867962.9 
   67200    84.630306   -6882118.8   -6868046.6 
   67300    85.515683   -6882207.7   -6867988.3 
   67400    84.999973   -6882197.6   -6868063.9 
   67500     85.26131   -6882262.2   -6868085.1 
   67600    85.020633   -6882231.5   -6868094.4 
   67700    85.029748   -6882214.9   -6868076.3 
   67800    84.980135   -6882303.5   -6868173.2 
   67900    85.685968   -6882256.8   -6868009.1 
   68000     84.42274   -6882245.6   -6868207.9 
   68100    84.786256   -6882251.6   -6868153.5 
   68200    84.887323   -6882246.3   -6868131.4 
   68300    84.943206     -6882331   -6868206.8 
   68400    84.925158   -6882299.8   -6868178.6 
   68500    85.106229   -6882303.7   -6868152.3 
   68600    85.062616   -6882251.5   -6868107.5 
   68700    85.169093   -6882386.9   -6868225.1 
   68800    84.943434   -6882391.7   -6868267.5 
   68900    84.956931   -6882386.7   -6868260.1 
   69000    84.721084   -6882212.7   -6868125.4 
   69100    85.106843   -6882329.9   -6868178.5 
   69200    84.619428   -6882275.1   -6868204.7 
   69300    84.910111   -6882273.4   -6868154.7 
   69400    85.341826     -6882319   -6868128.5 
   69500    84.165677     -6882238   -6868243.1 
   69600    84.643706   -6882318.9   -6868244.5 
   69700    84.507632   -6882232.5   -6868180.7 
   69800    84.952625   -6882334.5   -6868208.7 
   69900    84.819251   -6882218.9   -6868115.3 
   70000     85.26475   -6882381.9   -6868204.2 
   70100    85.031568     -6882283     -6868144 
   70200    85.439084   -6882232.6   -6868025.9 
   70300    84.659545   -6882183.1     -6868106 
   70400    85.371126   -6882183.2   -6867987.8 
   70500    85.007151   -6882154.9     -6868020 
   70600    84.979529   -6882169.3     -6868039 
   70700    85.091587   -6882117.3   -6867968.4 
   70800    84.946664   -6882066.7   -6867941.9 
   70900    85.260485   -6882198.4   -6868021.4 
   71000    84.766448   -6882117.7   -6868022.9 
   71100    84.476924   -6882090.2   -6868043.5 
   71200    85.180958   -6882106.4   -6867942.6 
   71300    85.050365   -6882058.2   -6867916.1 
   71400    85.230882   -6882075.4   -6867903.4 
   71500    84.938552   -6882077.6   -6867954.2 
   71600    85.243719   -6882057.3   -6867883.1 
   71700    84.802118     -6881996   -6867895.2 
   71800     84.75819     -6881960   -6867866.5 
   71900    84.020077   -6882140.5   -6868169.8 
   72000    85.071731   -6881982.6     -6867837 
   72100    84.831684   -6881948.6   -6867842.9 
   72200    84.894051   -6881891.5   -6867775.5 
   72300    85.205432   -6881954.4   -6867786.6 
   72400     84.99769   -6881970.5   -6867837.2 
   72500    84.655333   -6881944.8   -6867868.5 
   72600    85.243385   -6881958.2     -6867784 
   72700    85.127071   -6881983.8     -6867829 
   72800    85.422588   -6881965.7   -6867761.7 
   72900      84.9216   -6881953.7   -6867833.1 
   73000    85.078668   -6881882.8   -6867736.1 
   73100    84.962933   -6881953.3   -6867825.8 
   73200    84.685836   -6881939.1   -6867857.7 
   73300    84.915502   -6881982.6     -6867863 
   73400      84.6818   -6881915.9   -6867835.1 
   73500    84.734992   -6881912.4   -6867822.8 
   73600    84.506235   -6881976.2   -6867924.6 
   73700    84.904264   -6882027.5   -6867909.8 
   73800    84.866509   -6882068.2   -6867956.8 
   73900    84.971361   -6882083.2   -6867954.3 
   74000    85.628848   -6882011.5   -6867773.2 
   74100    85.107439   -6881988.8   -6867837.2 
   74200    84.864163   -6882003.6   -6867892.5 
   74300    85.010558   -6881878.9   -6867743.4 
   74400     85.21663   -6881991.2   -6867821.5 
   74500    84.925767   -6881960.1   -6867838.7 
   74600    85.341082   -6881948.5   -6867758.1 
   74700    85.098045   -6882103.5   -6867953.5 
   74800    84.878108   -6882028.4     -6867915 
   74900    84.744934   -6881979.2     -6867888 
   75000    85.206142   -6882015.6   -6867847.6 
   75100      84.4732   -6882095.3   -6868049.2 
   75200    84.837644   -6882097.4   -6867990.7 
   75300     84.69111   -6882069.5   -6867987.2 
   75400    85.029136   -6882019.5     -6867881 
   75500    84.974939   -6882028.6   -6867899.1 
   75600    85.079401   -6882010.2   -6867863.4 
   75700    84.955893   -6882064.7   -6867938.3 
   75800    85.153941   -6882068.1   -6867908.8 
   75900    85.056343     -6882101     -6867958 
   76000    85.435221   -6882055.1   -6867849.1 
   76100    85.539415   -6882109.8   -6867886.4 
   76200    85.495538   -6882145.6   -6867929.5 
   76300    85.521839     -6882169   -6867948.6 
   76400    84.746523   -6882133.1   -6868041.6 
   76500    84.547537   -6882111.9   -6868053.5 
   76600    84.822047   -6882090.8   -6867986.7 
   76700    84.911462   -6882099.3   -6867980.4 
   76800     85.01107   -6882097.6     -6867962 
   76900    85.368404     -6882138   -6867943.1 
   77000    85.575642   -6882123.1   -6867893.7 
   77100    84.647539   -6882132.7   -6868057.6 
   77200    84.612919   -6882059.7   -6867990.4 
   77300    84.766174   -6882172.4   -6868077.6 
   77400    84.721651     -6882100   -6868012.6 
   77500    84.898055   -6882130.2   -6868013.5 
   77600    85.205535     -6882122   -6867954.2 
   77700    84.540879   -6882234.1   -6868176.8 
   77800    84.710167   -6882163.7   -6868078.2 
   77900    85.298883   -6882087.9   -6867904.6 
   78000    84.805072   -6882101.2   -6867999.9 
   78100    84.964255     -6882116   -6867988.2 
   78200    85.509136   -6882167.3     -6867949 
   78300    85.024575   -6882153.9   -6868016.2 
   78400    84.993958     -6882278   -6868145.4 
   78500    84.813005     -6882234   -6868131.4 
   78600    84.933846     -6882216   -6868093.3 
   78700    85.178363   -6882231.6   -6868068.3 
   78800    85.257171   -6882179.1   -6868002.6 
   78900    85.153563   -6882152.3   -6867993.1 
   79000    85.133152   -6882185.1   -6868029.3 
   79100    84.967719   -6882203.3   -6868074.9 
   79200    84.965838   -6882214.6   -6868086.6 
   79300    84.948124   -6882212.1     -6868087 
   79400    84.193235   -6882167.7   -6868168.2 
   79500    84.469519   -6882194.5     -6868149 
   79600    84.872607   -6882202.1   -6868089.6 
   79700    85.162415   -6882227.7   -6868067.1 
   79800     85.72361   -6882155.7   -6867901.7 
   79900      85.2254   -6882225.8   -6868054.7 
   80000    84.916618   -6882165.2   -6868045.4 
   80100    84.619511     -6882200   -6868129.6 
   80200    85.177561   -6882182.5   -6868019.3 
   80300     84.88155     -6882183     -6868069 
   80400    84.760571     -6882168   -6868074.1 
   80500    84.885939   -6882190.4   -6868075.7 
   80600     85.14711     -6882108   -6867949.9 
   80700    84.806096   -6882157.8   -6868056.3 
   80800    85.611738   -6882227.5   -6867992.1 
   80900    85.217816   -6882145.5   -6867975.6 
   81000    84.915168   -6882201.6   -6868082.1 
   81100     84.68596   -6882173.4   -6868091.9 
   81200    85.007778   -6882104.8   -6867969.9 
   81300    84.976609   -6882127.4   -6867997.6 
   81400    84.993115   -6882111.8   -6867979.3 
   81500    85.180439   -6882105.2   -6867941.5 
   81600      85.1855   -6882084.5   -6867919.9 
   81700    85.027422   -6882035.2     -6867897 
   81800    84.880937   -6882047.9   -6867934.1 
   81900    85.508162   -6882116.8   -6867898.6 
   82000    84.903759   -6882121.1   -6868003.4 
   82100    85.317213   -6882137.2   -6867950.8 
   82200    85.387892   -6882060.3   -6867862.1 
   82300     85.21369   -6882146.8   -6867977.6 
   82400     85.26631   -6882153.2   -6867975.3 
   82500     84.84492   -6882158.8     -6868051 
   82600    85.255596   -6882153.4   -6867977.2 
   82700    85.019264   -6882136.8   -6867999.9 
   82800    84.775867   -6881999.5   -6867903.1 
   82900    84.644816   -6882000.8   -6867926.2 
   83000    85.596358   -6882097.3   -6867864.5 
   83100    84.634572   -6882049.8   -6867976.9 
   83200    84.912894   -6882120.9   -6868001.7 
   83300    85.039671   -6882036.5   -6867896.2 
   83400    85.509534   -6882142.3   -6867923.9 
   83500    85.209968   -6882015.2   -6867846.6 
   83600    85.265729   -6882044.7   -6867866.8 
   83700    84.958849   -6881991.5   -6867864.7 
   83800    84.719605   -6882003.3   -6867916.2 
   83900    85.245109   -6882100.9   -6867926.5 
   84000    85.026308   -6881976.1   -6867838.1 
   84100    85.088244     -6882061   -6867912.7 
   84200    85.270183   -6881977.3   -6867798.7 
   84300     85.33461   -6881998.5   -6867809.2 
   84400    85.129635   -6881977.9   -6867822.6 
   84500    84.975182   -6882006.1   -6867876.6 
   84600    84.352611   -6882030.7   -6868004.7 
   84700    84.527491   -6881950.8   -6867895.7 
   84800    85.036546   -6881913.4   -6867773.7 
   84900    85.312278   -6881961.2   -6867775.6 
   85000    84.786593   -6882078.9   -6867980.7 
   85100     84.73554   -6881980.6   -6867890.9 
   85200    85.140586   -6882006.6   -6867849.5 
   85300    84.901291   -6882080.4   -6867963.1 
   85400    85.115043   -6882013.2   -6867860.4 
   85500    85.103171   -6882028.5   -6867877.7 
   85600    84.880513   -6882025.4   -6867911.6 
   85700    85.101117   -6881942.9   -6867792.4 
   85800    84.854008     -6882008   -6867898.6 
   85900    85.544477   -6881919.3   -6867695.1 
   86000     85.20184   -6882081.1   -6867913.8 
   86100     85.18653   -6882008.8   -6867844.1 
   86200    85.388163   -6882025.8   -6867827.6 
   86300    84.986344   -6882044.5   -6867913.1 
   86400    85.077793   -6882001.5   -6867854.9 
   86500      85.0012   -6881971.8   -6867837.9 
   86600    84.885115   -6881967.9   -6867853.3 
   86700    84.890758   -6882043.6   -6867928.1 
   86800    85.237615   -6882103.9   -6867930.7 
   86900    84.872095   -6882028.4     -6867916 
   87000    85.345568   -6882114.9   -6867923.7 
   87100    84.746323   -6882013.3   -6867921.8 
   87200    85.383763   -6882112.2   -6867914.7 
   87300    85.341369   -6882046.2   -6867855.8 
   87400    84.746207   -6882007.3   -6867915.9 
   87500    85.177869   -6882099.3   -6867936.1 
   87600    84.638927   -6882077.4   -6868003.7 
   87700    85.267522   -6882176.5   -6867998.4 
   87800    85.019508   -6882149.4   -6868012.5 
   87900    85.405044   -6882168.6   -6867967.6 
   88000     84.97422   -6882130.6   -6868001.2 
   88100    84.624708   -6882097.9   -6868026.6 
   88200    84.589088   -6882061.4     -6867996 
   88300    84.700113   -6882036.2   -6867952.4 
   88400    85.092914     -6882075   -6867925.9 
   88500    85.066531   -6882072.3   -6867927.6 
   88600    84.886067     -6882010   -6867895.3 
   88700    85.133579   -6882058.4   -6867902.5 
   88800    85.017109   -6882028.1   -6867891.5 
   88900    85.007529   -6881980.7   -6867845.7 
   89000    84.894146   -6882043.1     -6867927 
   89100    85.219747   -6882043.9   -6867873.7 
   89200    84.581708   -6882068.6   -6868004.5 
   89300    85.126901   -6882019.4   -6867864.6 
   89400     85.12611   -6881978.9   -6867824.2 
   89500    85.545877   -6882148.4     -6867924 
   89600    85.332937   -6882138.4   -6867949.3 
   89700    85.054498     -6882075   -6867932.3 
   89800     84.75403   -6882192.5   -6868099.7 
   89900    85.043365   -6882168.5   -6868027.6 
   90000     84.87157   -6882142.9   -6868030.5 
   90100    85.239046   -6882151.4     -6867978 
   90200    85.447034   -6882071.8   -6867863.8 
   90300    84.523443   -6882104.1   -6868049.7 
   90400     84.96876   -6882055.2   -6867926.7 
   90500    84.930898   -6882055.5   -6867933.3 
   90600    84.909398   -6882116.9   -6867998.3 
   90700    84.776814   -6882096.9   -6868000.4 
   90800    85.058139   -6882060.1   -6867916.8 
   90900    85.337968   -6882040.1   -6867850.2 
   91000    85.057688   -6882049.6   -6867906.3 
   91100    85.063743   -6882024.3     -6867880 
   91200    85.232914   -6882062.2   -6867889.8 
   91300    85.237347     -6882038   -6867864.9 
   91400     84.90808   -6882039.5   -6867921.1 
   91500    85.054686   -6882014.8   -6867872.1 
   91600    84.474305   -6882117.9   -6868071.6 
   91700    84.743738   -6882077.2   -6867986.1 
   91800    84.627406   -6882055.3   -6867983.6 
   91900    85.224273   -6882098.1   -6867927.1 
   92000     84.50675   -6882042.8   -6867991.1 
   92100    85.217448   -6882074.8   -6867904.9 
   92200    84.494262   -6882148.4   -6868098.8 
   92300    85.004695   -6882088.3   -6867953.8 
   92400    84.684806     -6882107   -6868025.7 
   92500    85.111647   -6882052.2   -6867899.9 
   92600    84.827124   -6882036.1   -6867931.2 
   92700    85.040158   -6881971.7   -6867831.3 
   92800    85.686016   -6882063.3   -6867815.5 
   92900    84.732381   -6881990.5   -6867901.3 
   93000    85.386585   -6882088.2   -6867890.2 
   93100    84.910597     -6882011   -6867892.2 
   93200    85.776861   -6882037.4   -6867774.5 
   93300    84.392354   -6881996.3   -6867963.7 
   93400     84.73175   -6881986.1     -6867897 
   93500    84.955671   -6882008.3     -6867882 
   93600    84.985881   -6881988.9   -6867857.6 
   93700    84.364732   -6882030.6   -6868002.6 
   93800    85.524785   -6882001.4   -6867780.4 
   93900    85.011762   -6881949.5   -6867813.9 
   94000      85.2988   -6882017.3     -6867834 
   94100       85.031   -6882037.6   -6867898.8 
   94200    84.627398   -6882013.1   -6867941.4 
   94300    85.039093   -6881916.7   -6867776.5 
   94400    84.860824   -6881961.2   -6867850.7 
   94500    84.848362   -6882030.7   -6867922.3 
   94600    84.660152   -6881996.8   -6867919.7 
   94700    85.239211   -6881972.7   -6867799.3 
   94800      84.8213   -6881973.4   -6867869.4 
   94900    84.645644   -6881977.5   -6867902.7 
   95000    84.806136   -6882011.8   -6867910.3 
   95100    84.891719   -6881977.2   -6867861.5 
   95200    85.094749   -6881926.8   -6867777.4 
   95300    85.112531   -6881917.5   -6867765.1 
   95400    84.548774   -6881986.2   -6867927.6 
   95500    85.382036   -6881971.7   -6867774.5 
   95600    85.411529   -6882021.5   -6867819.4 
   95700    84.799786   -6881955.1   -6867854.7 
   95800    84.675282   -6881876.9   -6867797.2 
   95900     85.53586   -6881876.9   -6867654.1 
   96000    84.502656   -6881928.6   -6867877.6 
   96100    85.042363   -6881892.9   -6867752.2 
   96200    85.269112   -6881947.9   -6867769.5 
   96300    85.255678   -6881948.9   -6867772.7 
   96400    85.148698     -6881952   -6867793.6 
   96500    85.083182   -6882009.5     -6867862 
   96600     84.99822   -6881958.9   -6867825.5 
   96700    85.204756   -6881953.3   -6867785.6 
   96800    85.012763   -6881934.7   -6867798.9 
   96900     84.92488   -6881992.4   -6867871.2 
   97000     85.15034   -6882026.9   -6867868.2 
   97100    85.082643   -6881942.1   -6867794.7 
   97200    85.600536   -6882045.3   -6867811.8 
   97300    85.290875   -6881999.2   -6867817.2 
   97400     84.90355   -6882011.4   -6867893.7 
   97500    85.308658   -6882041.1   -6867856.1 
   97600    84.904908   -6882012.5   -6867894.6 
   97700     85.21497   -6882064.8   -6867895.4 
   97800    84.902245   -6882010.7   -6867893.2 
   97900    84.780159   -6881951.5   -6867854.4 
   98000    84.900777   -6881994.3   -6867877.1 
   98100    85.164187     -6882043     -6867882 
   98200    84.969502   -6881926.4   -6867797.8 
   98300     85.11897   -6881936.8   -6867783.4 
   98400    84.989135   -6881917.6   -6867785.8 
   98500    84.937506   -6881971.3     -6867848 
   98600     85.11072   -6881927.3   -6867775.2 
   98700    85.060458   -6881951.1   -6867807.4 
   98800     84.73666   -6881958.2   -6867868.4 
   98900    85.181123   -6881971.6   -6867807.8 
   99000    85.109405   -6881929.3   -6867777.4 
   99100      84.9027   -6881901.3   -6867783.8 
   99200    84.971747   -6881900.5   -6867771.5 
   99300    85.006301   -6881939.5   -6867804.8 
   99400    85.222186   -6881906.7   -6867736.1 
   99500    84.720415   -6881938.5   -6867851.3 
   99600    84.928684   -6881958.3   -6867836.5 
   99700    84.924779     -6881945   -6867823.8 
   99800     85.13557   -6881947.5   -6867791.3 
   99900    84.410076   -6882004.7   -6867969.2 
  100000    84.774983   -6881899.3     -6867803 
  100100    85.156602   -6881958.1   -6867798.4 
  100200    84.492212   -6881970.7   -6867921.5 
  100300    85.150498   -6881973.1   -6867814.4 
  100400    84.989531   -6881953.3   -6867821.4 
  100500    84.911903   -6881959.7   -6867840.7 
  100600    84.910561   -6881906.5   -6867787.7 
  100700    84.549868   -6881810.1   -6867751.3 
  100800     84.99297   -6881953.8   -6867821.3 
  100900    84.693791   -6881793.1   -6867710.3 
  101000    85.077976   -6881869.2   -6867722.6 
  101100    85.113779   -6881881.5   -6867728.9 
  101200    85.007609   -6881803.9   -6867668.9 
  101300    84.811978   -6881758.4   -6867655.9 
  101400    84.677782   -6881787.6   -6867707.5 
  101500    85.182113   -6881833.9   -6867669.9 
  101600    84.990896   -6881824.3   -6867692.2 
  101700    84.969469   -6881845.6   -6867717.1 
  101800    84.706178   -6881837.6   -6867752.7 
  101900    84.665731   -6881951.1     -6867873 
  102000    85.114148   -6881893.9   -6867741.2 
  102100    84.747804   -6881977.1   -6867885.4 
  102200    84.846171   -6881908.5   -6867800.4 
  102300    85.058376   -6881922.4     -6867779 
  102400    85.185834   -6881925.7   -6867761.1 
  102500    84.926903   -6881944.9   -6867823.4 
  102600    85.100125   -6881992.3   -6867841.9 
  102700    85.185886   -6881915.3   -6867750.7 
  102800     85.01938   -6881948.7   -6867811.8 
  102900    84.825912     -6881981   -6867876.3 
  103000    85.120864   -6881869.3   -6867715.5 
  103100    84.990857   -6881914.1     -6867782 
  103200    84.854802   -6881961.5     -6867852 
  103300    84.948439     -6881913   -6867787.9 
  103400    84.818467   -6881995.1   -6867891.6 
  103500    84.651984   -6881944.2   -6867868.3 
  103600    85.270815   -6881922.4   -6867743.7 
  103700    84.723477   -6881860.9   -6867773.2 
  103800    84.688167   -6881923.9     -6867842 
  103900    84.844892   -6881900.8   -6867792.9 
  104000    84.822084   -6881953.3   -6867849.2 
  104100    84.417227   -6881984.3   -6867947.6 
  104200       84.675   -6881998.7   -6867919.1 
  104300    84.697398   -6881960.7   -6867877.3 
  104400     84.73354   -6881977.3   -6867887.9 
  104500    84.821396   -6881980.3   -6867876.3 
  104600     84.67998     -6882048   -6867967.5 
  104700    85.179393   -6882071.2   -6867907.7 
  104800    85.431006     -6881975   -6867769.6 
  104900    84.924964   -6882011.5   -6867890.3 
  105000    84.821605   -6882006.1   -6867902.1 
  105100    85.145789   -6882024.5   -6867866.6 
  105200    84.850987   -6881988.8   -6867879.9 
  105300    84.939407   -6882016.6     -6867893 
  105400    85.030394   -6881976.3   -6867837.6 
  105500    84.893119   -6882031.4   -6867915.5 
  105600    84.909752   -6881953.2   -6867834.5 
  105700    85.029774   -6881907.9   -6867769.2 
  105800    84.910928   -6881991.6   -6867872.7 
  105900     85.14839   -6881934.3     -6867776 
  106000     84.88981   -6881960.8   -6867845.5 
  106100    85.424227   -6881929.1   -6867724.9 
  106200    85.017131   -6881906.3   -6867769.8 
  106300    84.935139     -6881931   -6867808.1 
  106400    84.996724   -6881913.3   -6867780.2 
  106500    84.689511   -6881977.2   -6867895.1 
  106600    85.479045   -6881913.5   -6867700.2 
  106700     85.23572   -6881963.1   -6867790.2 
  106800    85.264133     -6881913   -6867735.4 
  106900    85.350666   -6881915.7   -6867723.7 
  107000    84.958414     -6881917   -6867790.2 
  107100    85.150581     -6881885   -6867726.3 
  107200    84.685213   -6881967.4     -6867886 
  107300    85.018747   -6881946.2   -6867809.4 
  107400    84.676341   -6881912.7   -6867832.8 
  107500    85.142613   -6881878.3   -6867720.9 
  107600    84.719797   -6881864.7   -6867777.6 
  107700     85.22082   -6881869.1   -6867698.7 
  107800    85.250266   -6881815.7   -6867640.4 
  107900    84.878561   -6881853.4   -6867739.9 
  108000     84.96979   -6881808.3   -6867679.6 
  108100    84.914998   -6881846.7   -6867727.2 
  108200     84.70496   -6881865.6     -6867781 
  108300    84.699561     -6881925   -6867841.3 
  108400    85.155173   -6881888.3   -6867728.8 
  108500    85.053818   -6881865.2   -6867722.6 
  108600    84.600337   -6881864.8   -6867797.5 
  108700    84.932288   -6881900.2   -6867777.8 
  108800    85.498697   -6881756.4   -6867539.8 
  108900    85.060657     -6881804   -6867660.3 
  109000    84.820253   -6881870.9   -6867767.1 
  109100    85.139128   -6881816.3   -6867659.5 
  109200    85.068439   -6881779.4   -6867634.3 
  109300    84.991579   -6881831.2   -6867698.9 
  109400    84.779958   -6881829.6   -6867732.5 
  109500    85.364585   -6881845.5   -6867651.2 
  109600    85.152355   -6881783.6   -6867624.6 
  109700    85.236066   -6881796.6   -6867623.7 
  109800    85.240867   -6881848.9   -6867675.2 
  109900    85.075662   -6881860.4   -6867714.1 
  110000    85.375456   -6881891.8   -6867695.7 
  110100     85.21813   -6881838.7   -6867668.8 
  110200     85.33504   -6881878.2   -6867688.8 
  110300    84.723747   -6881867.5   -6867779.8 
  110400    85.035323   -6881837.8   -6867698.2 
  110500    84.799981   -6881785.4     -6867685 
  110600    84.694006     -6881809   -6867726.2 
  110700    84.769362   -6881835.9   -6867740.6 
  110800    85.561965   -6881885.6   -6867658.5 
  110900    84.728076   -6881851.1   -6867762.6 
  111000    85.238816   -6881907.4     -6867734 
  111100    84.834797   -6881824.5   -6867718.3 
  111200    84.620856   -6881848.5   -6867777.9 
  111300    85.057708   -6881804.1   -6867660.8 
  111400    84.767218   -6881874.9   -6867779.9 
  111500    85.055816   -6881865.3   -6867722.3 
  111600    84.812921   -6881899.5   -6867796.9 
  111700    84.673022   -6881848.4   -6867769.1 
  111800    84.556769   -6881916.3   -6867856.4 
  111900    85.005776   -6881863.4   -6867728.8 
  112000    85.515096   -6881969.6   -6867750.3 
  112100    84.932783   -6881973.3   -6867850.8 
  112200    84.345643   -6881928.7   -6867903.8 
  112300    85.269544   -6881957.6   -6867779.1 
  112400    84.434434     -6881877   -6867837.4 
  112500    84.755251     -6881957   -6867864.1 
  112600     84.96282   -6881979.2   -6867851.7 
  112700    84.521266   -6882002.8   -6867948.7 
  112800    85.398044   -6881908.2   -6867708.4 
  112900    85.373128   -6881900.8   -6867705.1 
  113000    85.361376   -6881919.2   -6867725.5 
  113100    85.289503   -6881952.6   -6867770.8 
  113200    84.919117   -6881901.4   -6867781.2 
  113300    83.985927   -6881961.7   -6867996.7 
  113400    85.079995   -6882060.5   -6867913.5 
  113500    85.235484   -6881975.7   -6867802.9 
  113600    84.968192   -6881961.4     -6867833 
  113700    84.762883   -6881940.5   -6867846.2 
  113800    85.197887   -6882000.5   -6867833.9 
  113900    85.030754     -6881950   -6867811.2 
  114000    84.854033   -6881956.8   -6867847.4 
  114100    84.858973   -6881969.3   -6867859.1 
  114200    85.340006   -6881996.5   -6867806.3 
  114300    84.987944   -6881947.4   -6867815.7 
  114400    85.219678   -6881985.1   -6867814.9 
  114500    85.261395   -6881904.8   -6867727.7 
  114600    85.316009   -6881947.4   -6867761.2 
  114700    84.979154   -6881934.3   -6867804.1 
  114800    85.471658   -6881909.6   -6867697.5 
  114900    84.752664   -6881840.6   -6867748.1 
  115000     85.27201   -6881906.9     -6867728 
  115100    85.171437   -6881855.1   -6867692.9 
  115200    84.573183     -6881818   -6867755.3 
  115300    84.904631   -6881827.8     -6867710 
  115400    85.057572   -6881887.3     -6867744 
  115500    85.313417   -6881900.3   -6867714.5 
  115600    84.918668   -6881877.3   -6867757.1 
  115700    84.600672   -6881867.5   -6867800.2 
  115800     85.33248   -6881883.1   -6867694.1 
  115900    84.984501   -6881826.3   -6867695.2 
  116000    84.855326   -6881858.2   -6867748.6 
  116100    84.638204   -6881859.5     -6867786 
  116200    84.967701   -6881895.8   -6867767.5 
  116300    85.173107   -6881895.1   -6867732.7 
  116400    84.994218   -6881904.5   -6867771.8 
  116500    85.688507   -6881872.9   -6867624.8 
  116600    85.122273   -6881787.6   -6867633.6 
  116700    84.701226   -6881825.9   -6867741.9 
  116800    85.683481   -6881911.5   -6867664.2 
  116900    84.751876   -6881875.6   -6867783.2 
  117000    85.315515   -6881871.1   -6867684.9 
  117100    85.458708   -6881899.4   -6867689.5 
  117200      85.3122   -6881774.2   -6867588.7 
  117300    84.891453   -6881832.6     -6867717 
  117400    84.846926   -6881810.6   -6867702.4 
  117500    84.972285   -6881822.9   -6867693.8 
  117600    85.116049   -6881885.8   -6867732.9 
  117700    85.008629   -6881886.3   -6867751.2 
  117800    85.264809     -6881864   -6867686.3 
  117900    84.924663   -6881928.7   -6867807.6 
  118000    84.946017   -6881869.4   -6867744.7 
  118100    84.898208   -6881916.8     -6867800 
  118200    84.545239   -6881926.5   -6867868.4 
  118300    84.386976   -6881923.2   -6867891.5 
  118400    85.067722   -6881875.2   -6867730.3 
  118500    85.356087   -6881978.7   -6867785.8 
  118600    85.143297   -6881952.8   -6867795.3 
  118700     85.44638   -6881950.4   -6867742.5 
  118800    84.828025   -6881998.2   -6867893.1 
  118900    85.037895   -6882008.8   -6867868.9 
  119000    85.069566   -6881960.8   -6867815.5 
  119100     84.76671   -6882005.9     -6867911 
  119200    84.889124   -6881996.7   -6867881.5 
  119300    84.615115   -6881949.3   -6867879.6 
  119400    84.996054   -6882026.6   -6867893.6 
  119500    84.924643   -6882020.1     -6867899 
  119600    85.009729   -6881964.1   -6867828.8 
  119700     84.71396   -6881987.4   -6867901.3 
  119800    84.790621   -6881879.7   -6867780.9 
  119900    84.968712   -6881996.1   -6867867.6 
  120000    84.963972     -6881996   -6867868.3 
  120100    84.906812   -6881982.3   -6867864.1 
  120200    85.071213   -6882038.8   -6867893.3 
  120300     84.37233   -6881948.8   -6867919.5 
  120400     84.86224   -6882024.5   -6867913.8 
  120500    84.572431   -6881941.5   -6867878.9 
  120600    84.788216   -6882019.1   -6867920.6 
  120700    85.145043   -6881962.5   -6867804.7 
  120800    85.481869   -6881993.7   -6867779.9 
  120900    85.024478     -6881942   -6867804.2 
  121000    85.435868   -6882024.1   -6867817.9 
  121100    84.828976   -6881978.6   -6867873.4 
  121200    85.031028   -6881946.8     -6867808 
  121300    85.251339   -6881931.6   -6867756.1 
  121400    85.034474   -6881934.1   -6867794.7 
  121500    85.304831   -6881939.8   -6867755.5 
  121600    84.955066   -6881924.1   -6867797.9 
  121700    85.009391   -6881894.6   -6867759.4 
  121800     85.34715   -6881926.6   -6867735.2 
  121900    85.024627   -6881899.3   -6867761.5 
  122000    85.527792   -6881923.1   -6867701.7 
  122100    84.567569   -6881928.1   -6867866.3 
  122200    85.337921   -6881869.9   -6867680.1 
  122300    84.383903   -6881873.9   -6867842.7 
  122400    84.358974   -6881869.3   -6867842.2 
  122500    85.286981   -6881784.3   -6867602.9 
  122600    84.617957   -6881810.3   -6867740.1 
  122700    84.629252   -6881843.2   -6867771.2 
  122800    84.869634   -6881916.4   -6867804.4 
  122900    84.880331     -6881829   -6867715.3 
  123000    85.116831   -6881909.4   -6867756.3 
  123100    85.213966     -6881873   -6867703.7 
  123200    85.408345   -6881803.6   -6867602.1 
  123300    84.795551   -6881863.1   -6867763.4 
  123400    84.468879   -6881838.4     -6867793 
  123500    84.868564   -6881817.6   -6867705.7 
  123600     85.14278     -6881816   -6867658.6 
  123700    84.602752   -6881866.6     -6867799 
  123800    85.153669   -6881806.9   -6867647.7 
  123900    85.489272   -6881813.8   -6867598.7 
  124000    85.148657   -6881772.6   -6867614.2 
  124100    85.042809     -6881812   -6867671.2 
  124200    84.707633     -6881775     -6867690 
  124300     85.12999   -6881861.2   -6867705.9 
  124400    84.858761     -6881843   -6867732.8 
  124500    84.553342   -6881852.6   -6867793.2 
  124600     85.12442   -6881848.9   -6867694.5 
  124700    85.009114   -6881849.6   -6867714.4 
  124800    85.155793   -6881822.3   -6867662.8 
  124900    85.093077   -6881752.8   -6867603.6 
  125000    85.185841   -6881808.5   -6867643.9 
  125100    84.667954   -6881790.7   -6867712.3 
  125200      84.9687   -6881764.6   -6867636.2 
  125300    85.043835   -6881747.6   -6867606.6 
  125400     84.69268   -6881783.5   -6867700.9 
  125500    85.502355   -6881799.5   -6867582.2 
  125600    84.854742   -6881713.5     -6867604 
  125700    84.736748   -6881774.7   -6867684.7 
  125800    84.977191   -6881797.5   -6867667.6 
  125900    85.137846     -6881724   -6867567.4 
  126000    85.147599   -6881744.9   -6867586.6 
  126100    84.625458   -6881880.8   -6867809.4 
  126200    84.741895   -6881766.1   -6867675.3 
  126300    85.308682   -6881798.6   -6867613.6 
  126400    84.836964   -6881784.2   -6867677.7 
  126500     85.16387   -6881804.7   -6867643.7 
  126600    85.187712   -6881765.7   -6867600.8 
  126700     85.13855   -6881886.3   -6867729.6 
  126800    85.121405     -6881858   -6867704.1 
  126900    84.961479     -6881823   -6867695.8 
  127000    84.742234   -6881894.2   -6867803.4 
  127100    84.569031   -6881795.3   -6867733.3 
  127200    85.338904   -6881876.6   -6867686.6 
  127300    84.992806   -6881867.4     -6867735 
  127400     84.47606   -6881883.5   -6867836.9 
  127500    84.693012   -6881800.6     -6867718 
  127600    85.296655   -6881900.4   -6867717.4 
  127700    84.462557   -6881933.7   -6867889.4 
  127800    84.431142   -6881904.6   -6867865.5 
  127900    84.635475   -6881879.4   -6867806.3 
  128000    84.907445     -6881884   -6867765.7 
  128100    84.983131   -6881877.7   -6867746.9 
  128200    85.124019   -6881952.8   -6867798.5 
  128300    84.713784   -6881935.3   -6867849.2 
  128400    85.080832   -6882020.6   -6867873.5 
  128500    84.997382   -6881931.2     -6867798 
  128600    84.832156   -6881891.5   -6867785.8 
  128700    84.892241   -6881988.3   -6867872.6 
  128800    85.318217   -6881887.6     -6867701 
  128900     85.64163   -6881958.4     -6867718 
  129000    84.933505   -6882003.5   -6867880.8 
  129100    85.186849   -6882021.2   -6867856.5 
  129200    84.858201   -6881947.2   -6867837.1 
  129300    85.091171   -6881895.7   -6867746.9 
  129400    84.748044   -6881977.2   -6867885.5 
  129500     84.70324   -6881923.6   -6867839.3 
  129600    85.038932   -6881968.7   -6867828.5 
  129700    85.073783   -6881847.2   -6867701.3 
  129800    84.669151   -6881933.5   -6867854.9 
  129900    84.927525   -6881874.8   -6867753.1 
  130000     84.65239   -6881913.8     -6867838 
  130100    84.875603   -6881906.7   -6867793.7 
  130200     85.08431   -6881905.8   -6867758.1 
  130300    85.187743     -6881868   -6867703.1 
  130400     84.80275     -6881848   -6867747.1 
  130500    84.796738   -6881860.2   -6867760.3 
  130600    84.595914   -6881849.5     -6867783 
  130700     84.91751   -6881896.8   -6867776.8 
  130800    84.723937   -6881912.6   -6867824.9 
  130900    85.529307   -6881872.4   -6867650.7 
  131000    84.657088     -6881838   -6867761.3 
  131100    85.488008   -6881865.3   -6867650.5 
  131200    84.811819     -6881863   -6867760.7 
  131300    84.838739   -6881847.3   -6867740.5 
  131400    84.846705   -6881843.1   -6867734.9 
  131500    84.949454     -6881848   -6867722.7 
  131600    85.143276   -6881791.6   -6867634.1 
  131700    85.353694   -6881720.6   -6867528.1 
  131800    85.233351     -6881706   -6867533.5 
  131900    84.667264   -6881769.6   -6867691.3 
  132000     84.70631   -6881760.7   -6867675.8 
  132100    85.126113   -6881717.6   -6867562.9 
  132200    85.161878     -6881695   -6867534.4 
  132300    84.895296     -6881778   -6867661.7 
  132400    85.281975   -6881801.5   -6867620.9 
  132500     84.94204   -6881761.5   -6867637.5 
  132600     85.27982   -6881824.7   -6867644.5 
  132700    84.825401   -6881797.7   -6867693.1 
  132800    85.592462   -6881785.2     -6867553 
  132900    84.916226   -6881723.9   -6867604.2 
  133000    84.964197   -6881741.8   -6867614.1 
  133100    84.674441   -6881676.5     -6867597 
  133200    85.276491   -6881756.3   -6867576.6 
  133300    84.996084   -6881767.9   -6867634.9 
  133400    84.966603   -6881707.7   -6867579.5 
  133500    84.999161     -6881706   -6867572.5 
  133600    85.440514   -6881758.3   -6867551.4 
  133700    85.314863   -6881769.4   -6867583.3 
  133800     85.16805   -6881680.1   -6867518.5 
  133900    84.852641   -6881721.2     -6867612 
  134000    85.105629   -6881822.1   -6867670.9 
  134100    84.502171   -6881772.8   -6867721.9 
  134200    85.200309   -6881826.9   -6867659.9 
  134300    84.938759   -6881779.7   -6867656.2 
  134400    85.200541   -6881785.9   -6867618.8 
  134500    85.036111   -6881823.7     -6867684 
  134600    85.163337   -6881825.5   -6867664.7 
  134700    84.793207   -6881852.2   -6867752.9 
  134800    84.566185   -6881894.8   -6867833.2 
  134900    85.681212   -6881765.8   -6867518.8 
  135000    84.552291   -6881804.7   -6867745.4 
  135100    85.634791   -6881799.6   -6867560.4 
  135200    85.020956   -6881817.9   -6867680.7 
  135300    85.004861   -6881819.5     -6867685 
  135400    84.789193   -6881809.1   -6867710.4 
  135500    85.476072   -6881823.1   -6867610.3 
  135600    84.677899   -6881753.6   -6867673.5 
  135700    85.294652   -6881818.5   -6867635.8 
  135800    85.411644   -6881667.4   -6867465.2 
  135900    85.195279     -6881793   -6867626.9 
  136000    85.317545   -6881744.4   -6867557.9 
  136100    85.564473   -6881775.1   -6867547.6 
  136200     84.99682   -6881861.3   -6867728.1 
  136300    84.947237   -6881859.3   -6867734.4 
  136400    84.747428   -6881818.6   -6867726.9 
  136500    84.984231   -6881939.3   -6867808.3 
  136600    84.720041   -6881920.9   -6867833.7 
  136700     84.45513   -6881848.4   -6867805.3 
  136800    85.179496   -6881920.6     -6867757 
  136900    85.138129   -6881931.1   -6867774.5 
  137000    85.159396   -6881924.9   -6867764.7 
  137100    84.960889   -6881831.3   -6867704.1 
  137200    84.952553   -6881913.7   -6867787.9 
  137300     85.05148   -6881944.4   -6867802.1 
  137400    85.129053   -6881840.4   -6867685.3 
  137500    84.432308   -6881984.3     -6867945 
  137600    84.967493   -6881862.8   -6867734.6 
  137700    84.638814   -6881911.4   -6867837.7 
  137800    84.661849   -6881910.6   -6867833.1 
  137900     85.25356   -6881928.1   -6867752.2 
  138000    84.896266   -6881897.6   -6867781.2 
  138100    85.313394   -6881807.6   -6867621.8 
  138200    85.328758   -6881752.4     -6867564 
  138300     85.24469   -6881728.4   -6867554.1 
  138400    84.618632   -6881783.9   -6867713.7 
  138500    85.349227   -6881872.2   -6867680.5 
  138600    85.344305   -6881800.9   -6867609.9 
  138700     85.22777   -6881845.8   -6867674.3 
  138800    85.167641   -6881845.6   -6867684.1 
  138900    85.098113   -6881825.6   -6867675.6 
  139000    84.687505   -6881762.7     -6867681 
  139100    84.763104   -6881784.5   -6867690.2 
  139200    84.884002   -6881765.2   -6867650.8 
  139300    85.041523     -6881740   -6867599.5 
  139400     85.20226   -6881736.2   -6867568.9 
  139500    84.942279   -6881707.2   -6867583.2 
  139600    85.095789   -6881706.2   -6867556.6 
  139700    85.429193   -6881728.1     -6867523 
  139800    84.856638   -6881687.5   -6867577.7 
  139900    84.504068   -6881700.2     -6867649 
  140000    85.210133   -6881709.8   -6867541.2 
  140100    85.170692   -6881718.9   -6867556.8 
  140200    84.678596   -6881704.5   -6867624.2 
  140300    84.957745   -6881679.5   -6867552.8 
  140400    85.495439   -6881540.1     -6867324 
  140500     85.02995   -6881637.8   -6867499.2 
  140600    84.808239   -6881654.2   -6867552.5 
  140700    84.806972   -6881630.9   -6867529.3 
  140800    84.610827   -6881685.6   -6867616.6 
  140900    84.941512   -6881655.5   -6867531.5 
  141000    84.694057   -6881633.2   -6867550.4 
  141100    85.041467   -6881706.7   -6867566.2 
  141200    84.884496   -6881664.4     -6867550 
  141300    84.529554     -6881692   -6867636.5 
  141400    85.258844     -6881708   -6867531.3 
  141500    85.527915   -6881693.9   -6867472.5 
  141600    84.835318   -6881764.6   -6867658.3 
  141700    84.769781   -6881747.5   -6867652.1 
  141800    84.554758   -6881728.9   -6867669.2 
  141900    84.989841   -6881787.2   -6867655.2 
  142000    85.079452   -6881813.1   -6867666.2 
  142100     85.00505   -6881741.6   -6867607.1 
  142200    84.703189   -6881737.6   -6867653.3 
  142300      84.8904   -6881718.7   -6867603.2 
  142400    84.906979   -6881731.4   -6867613.2 
  142500    85.040057   -6881827.1   -6867686.8 
  142600    84.689955   -6881852.1     -6867770 
  142700    85.042889   -6881746.2   -6867605.4 
  142800    85.138761   -6881756.6   -6867599.8 
  142900    85.609958   -6881812.5   -6867577.4 
  143000    85.234335   -6881887.8   -6867715.1 
  143100    85.310754   -6881875.4   -6867690.1 
  143200    84.717989   -6881832.7   -6867745.9 
  143300    84.602857   -6881813.6   -6867745.9 
  143400    85.141735   -6881862.2     -6867705 
  143500    84.977297   -6881872.6   -6867742.7 
  143600    85.220439   -6881845.8   -6867675.5 
  143700    85.192129   -6881913.5   -6867747.8 
  143800    85.099251     -6881941   -6867790.9 
  143900    84.987552     -6881908   -6867776.4 
  144000    84.657507     -6881932   -6867855.3 
  144100     84.43022   -6881927.3   -6867888.3 
  144200    84.688336   -6881949.7   -6867867.8 
  144300    85.061029   -6881948.4   -6867804.6 
  144400      85.1481   -6881861.4   -6867703.1 
  144500    85.235877   -6881883.6   -6867710.7 
  144600    85.109773   -6881841.6   -6867689.6 
  144700    85.578763   -6881785.6   -6867555.7 
  144800    84.825953   -6881937.6   -6867832.9 
  144900    85.719959     -6881897   -6867643.6 
  145000    84.978957     -6881948   -6867817.8 
  145100    84.921995   -6881932.9   -6867812.2 
  145200    84.849715   -6881887.5   -6867778.8 
  145300    84.863168   -6881851.4   -6867740.5 
  145400     84.78184   -6881845.9   -6867748.5 
  145500    84.907662   -6881843.6   -6867725.3 
  145600    84.753375   -6881828.1   -6867735.5 
  145700    85.120855   -6881863.4   -6867709.7 
  145800    85.254384     -6881849     -6867673 
  145900    84.757331   -6881917.6   -6867824.2 
  146000    84.483791   -6881869.4   -6867821.5 
  146100    85.420127   -6881810.1   -6867606.6 
  146200    85.228694   -6881839.1   -6867667.4 
  146300    85.186163   -6881741.2   -6867576.6 
  146400    85.376962   -6881789.2   -6867592.8 
  146500    85.154002   -6881855.3     -6867696 
  146600    85.563873   -6881895.3   -6867667.9 
  146700    85.032685   -6881732.9   -6867593.8 
  146800    85.414264   -6881812.9   -6867610.4 
  146900    84.960045   -6881755.3   -6867628.3 
  147000    85.239523   -6881830.9   -6867657.4 
  147100    85.007134   -6881747.5   -6867612.7 
  147200    84.617036   -6881797.9   -6867727.9 
  147300    85.044938   -6881829.5   -6867688.4 
  147400     85.82381   -6881811.1   -6867540.5 
  147500    84.490448   -6881769.2   -6867720.3 
  147600    84.750374   -6881794.3   -6867702.2 
  147700    85.009932   -6881731.8   -6867596.5 
  147800    84.898356   -6881740.4   -6867623.7 
  147900    85.082956   -6881667.4   -6867519.9 
  148000    85.105309   -6881804.7   -6867653.5 
  148100    85.200543   -6881653.8   -6867486.8 
  148200     85.43667   -6881608.2   -6867401.9 
  148300    85.162497   -6881747.5   -6867586.8 
  148400    85.120266     -6881661   -6867507.3 
  148500     84.57709   -6881713.7   -6867650.3 
  148600    85.515531   -6881715.4     -6867496 
  148700    85.676255   -6881757.2   -6867511.1 
  148800    84.683038   -6881791.3   -6867710.4 
  148900    84.674715   -6881721.8   -6867642.2 
  149000    84.864944   -6881784.8   -6867673.6 
  149100    84.991775   -6881746.9   -6867614.6 
  149200    85.027749   -6881765.3     -6867627 
  149300    85.017658   -6881767.4   -6867630.7 
  149400     85.19606   -6881824.1   -6867657.8 
  149500    84.755437   -6881810.3   -6867717.3 
  149600    85.142416   -6881848.3   -6867690.9 
  149700    85.265334   -6881816.2   -6867638.4 
  149800    85.360596   -6881779.9   -6867586.3 
  149900    85.013697   -6881846.4   -6867710.5 
  150000    84.686743   -6881847.7   -6867766.2 
  150100    85.185037   -6881760.9   -6867596.5 
  150200    85.422661   -6881809.8   -6867605.9 
  150300    85.003098   -6881809.9   -6867675.7 
  150400    85.234259   -6881753.9   -6867581.3 
  150500    84.770384   -6881715.3   -6867619.8 
  150600    84.970738   -6881750.5   -6867621.7 
  150700    85.255017   -6881774.2   -6867598.1 
  150800    85.192222   -6881881.3   -6867715.7 
  150900     84.49637   -6881804.5   -6867754.5 
  151000    84.989027   -6881783.2   -6867651.4 
  151100    85.115379   -6881875.9     -6867723 
  151200    84.901397   -6881805.2   -6867687.9 
  151300    84.793441   -6881929.2   -6867829.9 
  151400    84.303291   -6881897.1   -6867879.2 
  151500    84.562453   -6881907.2   -6867846.3 
  151600    84.703823   -6881858.6   -6867774.2 
  151700    84.873115   -6881914.4   -6867801.8 
  151800     85.31319   -6881872.8     -6867687 
  151900    84.713445     -6881860   -6867773.9 
  152000    84.791774   -6881875.8   -6867776.7 
  152100    84.625932   -6881903.7   -6867832.3 
  152200    85.142413   -6881839.3   -6867681.9 
  152300    84.967078   -6881889.8   -6867761.6 
  152400     84.70568   -6881910.7   -6867825.9 
  152500    85.124413     -6881821   -6867666.7 
  152600    84.717569   -6881800.3   -6867713.6 
  152700    84.968159   -6881816.8   -6867688.4 
  152800    84.644394   -6881768.8   -6867694.2 
  152900    84.962257   -6881748.5   -6867621.1 
  153000    84.876531   -6881865.6   -6867752.5 
  153100    84.828107   -6881776.6   -6867671.6 
  153200    84.967952     -6881828   -6867699.7 
  153300    84.684251   -6881762.6   -6867681.5 
  153400    84.896161   -6881826.5   -6867710.1 
  153500    84.933061   -6881791.3   -6867668.7 
  153600    84.488927     -6881808   -6867759.3 
  153700     84.40706   -6881753.5   -6867718.5 
  153800    85.256054   -6881744.5   -6867568.2 
  153900    84.667555   -6881740.6   -6867662.2 
  154000    84.590892     -6881783   -6867717.4 
  154100    84.776585   -6881766.6   -6867670.1 
  154200    84.176627   -6881755.4   -6867758.7 
  154300    85.450703     -6881687   -6867478.4 
  154400    84.850197   -6881720.7   -6867611.9 
  154500    84.705709   -6881730.5   -6867645.7 
  154600     85.01713   -6881778.4   -6867641.8 
  154700    85.153458   -6881658.6   -6867499.4 
  154800    84.869752   -6881643.3   -6867531.3 
  154900    85.341679   -6881756.6   -6867566.1 
  155000    85.183477   -6881743.9   -6867579.8 
  155100    84.711039   -6881773.2   -6867687.5 
  155200    85.060724   -6881771.6   -6867627.9 
  155300    85.299268   -6881810.1   -6867626.7 
  155400    85.230178   -6881703.3   -6867531.3 
  155500    85.123499   -6881764.3   -6867610.1 
  155600    85.128831   -6881729.2   -6867574.1 
  155700    85.818132   -6881693.3   -6867423.6 
  155800    85.039751   -6881740.7   -6867600.5 
  155900    84.577451   -6881650.1   -6867586.7 
  156000    85.307645   -6881647.8     -6867463 
  156100    85.121135     -6881654   -6867500.2 
  156200     85.23833   -6881725.4   -6867552.1 
  156300    85.328339   -6881715.7   -6867527.4 
  156400    84.541391   -6881703.3   -6867645.9 
  156500    84.967929   -6881689.3   -6867560.9 
  156600    84.741575   -6881636.3   -6867545.6 
  156700    84.697326   -6881671.6   -6867588.2 
  156800    85.208434   -6881681.3     -6867513 
  156900    84.675867   -6881683.2   -6867603.4 
  157000     85.19128   -6881770.7   -6867605.3 
  157100    84.885903   -6881712.4   -6867597.7 
  157200    85.223062   -6881706.1   -6867535.3 
  157300    85.182908   -6881661.5   -6867497.4 
  157400    85.403768   -6881780.2   -6867579.4 
  157500    85.409348   -6881632.6   -6867430.9 
  157600    85.218267   -6881766.5   -6867596.5 
  157700    84.589725   -6881699.3   -6867633.9 
  157800    84.751984   -6881785.3   -6867692.9 
  157900    84.977379   -6881747.2   -6867617.3 
  158000    85.042523   -6881753.5   -6867612.8 
  158100    85.166703     -6881632   -6867470.6 
  158200    84.581601   -6881661.5   -6867597.4 
  158300    85.334768   -6881670.1   -6867480.7 
  158400    85.182456   -6881706.9   -6867542.8 
  158500     84.82797   -6881682.7   -6867577.6 
  158600    84.999181   -6881722.3   -6867588.7 
  158700    85.033648     -6881689   -6867549.8 
  158800    85.221633     -6881741   -6867570.4 
  158900    85.022246   -6881821.3   -6867683.9 
  159000    84.875889   -6881805.6   -6867692.6 
  159100    85.036352     -6881828   -6867688.3 
  159200    85.272493   -6881723.4   -6867544.4 
  159300    85.189434   -6881831.1   -6867665.9 
  159400    85.012152   -6881730.2   -6867594.5 
  159500    84.938865   -6881826.3   -6867702.8 
  159600    84.993387   -6881760.5     -6867628 
  159700    85.002486   -6881812.5   -6867678.4 
  159800     85.38906     -6881848   -6867649.7 
  159900    84.721773     -6881817   -6867729.6 
  160000    84.926562   -6881794.1   -6867672.7 
  160100    84.713679   -6881808.4   -6867722.3 
  160200     84.70989   -6881847.9   -6867762.5 
  160300    85.404179   -6881880.1   -6867679.3 
  160400    84.854665   -6881823.5     -6867714 
  160500    84.887667   -6881774.6   -6867659.7 
  160600    85.162447   -6881785.8   -6867625.1 
  160700    84.639255   -6881793.4   -6867719.7 
  160800    85.026385   -6881753.8   -6867615.7 
  160900    84.628578     -6881893   -6867821.1 
  161000     84.24809   -6881717.8   -6867709.1 
  161100     85.25436   -6881798.5   -6867622.6 
  161200    84.779339   -6881744.9   -6867647.9 
  161300    85.226638   -6881764.7   -6867593.3 
  161400    84.723614   -6881856.4   -6867768.7 
  161500    84.934885   -6881837.2   -6867714.4 
  161600    85.256475   -6881794.5   -6867618.2 
  161700    85.348668   -6881818.1   -6867626.5 
  161800    84.592543   -6881833.7   -6867767.8 
  161900    85.469893   -6881855.5   -6867643.7 
  162000    85.385444   -6881834.7   -6867636.9 
  162100    84.999706   -6881834.5   -6867700.8 
  162200    85.434066   -6881820.2   -6867614.3 
  162300    84.758725   -6881824.9   -6867731.4 
  162400    84.653545   -6881782.8   -6867706.7 
  162500    84.932623   -6881867.2   -6867744.8 
  162600    85.193231     -6881919   -6867753.2 
  162700    85.177068   -6881959.4   -6867796.3 
  162800    85.256798   -6881883.7   -6867707.3 
  162900    84.705962   -6881820.5   -6867735.7 
  163000    85.177655   -6881853.8   -6867690.6 
  163100    84.814521   -6881742.5   -6867639.7 
  163200    84.923599   -6881730.6   -6867609.7 
  163300    84.630737   -6881784.3     -6867712 
  163400    85.906357   -6881714.9   -6867430.6 
  163500    85.128757   -6881744.4   -6867589.3 
  163600    84.914071   -6881748.7   -6867629.3 
  163700    85.039933   -6881779.6   -6867639.3 
  163800    85.440568   -6881792.7   -6867585.8 
  163900    85.421445   -6881742.7     -6867539 
  164000    85.163521   -6881738.9   -6867578.1 
  164100    84.749558   -6881719.5   -6867627.5 
  164200    84.816397   -6881764.3   -6867661.1 
  164300    84.673941   -6881732.1   -6867652.7 
  164400    84.749843   -6881729.4   -6867637.3 
  164500    85.430327     -6881833   -6867627.8 
  164600    85.015347   -6881796.9   -6867660.7 
  164700    85.531648     -6881700   -6867477.9 
  164800    85.209799   -6881712.3   -6867543.7 
  164900    85.051685   -6881676.8   -6867534.6 
  165000     84.93927   -6881814.4   -6867690.8 
  165100     84.54671   -6881717.9   -6867659.6 
  165200    84.845082   -6881724.7   -6867616.8 
  165300    85.061885   -6881732.8   -6867588.9 
  165400    84.848596     -6881701   -6867592.5 
  165500    85.063044   -6881706.3   -6867562.1 
  165600    85.303784   -6881695.2     -6867511 
  165700    85.434675   -6881684.4   -6867478.5 
  165800    84.443811   -6881701.9   -6867660.7 
  165900    84.906463   -6881683.1   -6867564.9 
  166000    85.112846   -6881678.8   -6867526.3 
  166100    85.373752   -6881729.2   -6867533.4 
  166200    85.389849   -6881690.1   -6867491.6 
  166300    84.569795   -6881722.3   -6867660.2 
  166400    85.535414   -6881678.9   -6867456.2 
  166500    84.603469   -6881761.4   -6867693.7 
  166600    84.876095   -6881675.9   -6867562.9 
  166700     85.24011   -6881723.6     -6867550 
  166800    84.945923   -6881739.7     -6867615 
  166900    85.189667     -6881694   -6867528.8 
  167000     85.51334   -6881685.7   -6867466.7 
  167100    85.418052   -6881737.1   -6867533.9 
  167200    84.692015   -6881731.1   -6867648.6 
  167300    84.856964   -6881701.1   -6867591.3 
  167400    84.962415   -6881721.6   -6867594.2 
  167500    85.287878   -6881696.4   -6867514.9 
  167600    85.716084   -6881713.2   -6867460.4 
  167700    85.006727   -6881742.3   -6867607.6 
  167800    84.762933   -6881741.1   -6867646.8 
  167900    85.366044   -6881752.2   -6867557.7 
  168000    84.799515   -6881691.2   -6867590.9 
  168100    84.820736   -6881688.6   -6867584.8 
  168200    84.694419   -6881763.6   -6867680.7 
  168300    85.746764   -6881656.1   -6867398.2 
  168400    84.768371   -6881780.9   -6867685.8 
  168500    84.755725   -6881752.5   -6867659.4 
  168600    85.025408   -6881729.9     -6867592 
  168700    84.883813   -6881775.1   -6867660.7 
  168800    84.531058   -6881772.3   -6867716.6 
  168900    85.291197     -6881783   -6867600.9 
  169000     84.95539     -6881756   -6867629.7 
  169100    85.233604   -6881721.4   -6867548.9 
  169200    84.997082   -6881815.5   -6867682.4 
  169300    84.785785   -6881810.4   -6867712.4 
  169400    85.418322   -6881878.9   -6867675.6 
  169500    85.140568   -6881794.4   -6867637.4 
  169600    84.794782   -6881911.5   -6867811.9 
  169700    84.838935   -6881837.2   -6867730.3 
  169800    84.986673   -6881815.7   -6867684.2 
  169900    85.021044     -6881806   -6867668.8 
  170000    84.727198     -6881774   -6867685.7 
  170100    85.129694   -6881842.3   -6867687.1 
  170200    84.822116   -6881821.9   -6867717.8 
  170300    84.627384   -6881801.9   -6867730.2 
  170400    85.141554   -6881837.5   -6867680.3 
  170500      85.2079   -6881770.6   -6867602.3 
  170600    85.326827   -6881798.5   -6867610.5 
  170700    84.340857     -6881885   -6867860.9 
  170800    85.006139   -6881825.7     -6867691 
  170900    84.523436   -6881704.8   -6867650.4 
  171000    85.000406   -6881864.2   -6867730.4 
  171100    85.184838   -6881831.7   -6867667.2 
  171200    85.633873   -6881844.8   -6867605.7 
  171300    84.882556   -6881859.4   -6867745.3 
  171400    84.951113   -6881844.9   -6867719.3 
  171500    84.712056   -6881842.8     -6867757 
  171600    85.108917   -6881872.7   -6867720.9 
  171700     85.30123   -6881857.7   -6867673.9 
  171800    84.765835   -6881891.6   -6867796.9 
  171900    84.806817   -6881829.5     -6867728 
  172000    84.832053   -6881821.6   -6867715.8 
  172100    84.445966   -6881790.4   -6867748.8 
  172200    85.010817   -6881839.3   -6867703.9 
  172300    85.283053   -6881797.6   -6867616.9 
  172400    84.967187   -6881719.7   -6867591.5 
  172500    84.962394   -6881756.2   -6867628.7 
  172600    84.939486   -6881696.4   -6867572.8 
  172700     85.01551   -6881731.4   -6867595.1 
  172800    84.840875     -6881824   -6867716.7 
  172900    84.635427   -6881831.1     -6867758 
  173000     84.28989   -6881721.3   -6867705.7 
  173100    84.516416   -6881822.8   -6867769.5 
  173200    84.876341   -6881815.8   -6867702.7 
  173300      85.2653   -6881729.1   -6867551.3 
  173400      85.0283     -6881759   -6867620.6 
  173500    85.132742   -6881743.4   -6867587.7 
  173600    85.166682   -6881674.9   -6867513.5 
  173700    84.754717   -6881729.7   -6867636.8 
  173800    84.703489   -6881728.2   -6867643.9 
  173900    85.381564     -6881745   -6867547.8 
  174000    85.367909   -6881737.5   -6867542.6 
  174100    85.310314   -6881695.7   -6867510.5 
  174200    85.108912   -6881697.4   -6867545.6 
  174300    85.050574   -6881665.1     -6867523 
  174400    84.357966   -6881706.8   -6867679.9 
  174500    84.711521     -6881646   -6867560.3 
  174600    85.022111   -6881714.1   -6867576.7 
  174700    85.113255   -6881671.1   -6867518.6 
  174800    85.130756   -6881735.5   -6867580.1 
  174900    85.249299   -6881623.1     -6867448 
  175000    85.198374   -6881652.7     -6867486 
  175100    84.817187   -6881708.4   -6867605.1 
  175200    84.847051   -6881715.1   -6867606.9 
  175300    84.851419   -6881732.8   -6867623.8 
  175400    84.802493   -6881643.5   -6867542.6 
  175500    84.979991   -6881667.4     -6867537 
  175600    85.040705   -6881646.9   -6867506.4 
  175700    85.459471   -6881643.9   -6867433.8 
  175800    85.086684   -6881681.9   -6867533.9 
  175900    84.865651     -6881692   -6867580.7 
  176000    85.231573   -6881750.4   -6867578.2 
  176100    85.108322     -6881643   -6867491.3 
  176200    85.271611   -6881632.2   -6867453.3 
  176300     85.45101   -6881691.9   -6867483.2 
  176400    84.484669   -6881677.9     -6867630 
  176500    84.604123   -6881629.6   -6867561.8 
  176600    84.858375   -6881748.6   -6867638.4 
  176700    85.176202   -6881741.7   -6867578.7 
  176800    85.403202   -6881730.7     -6867530 
  176900    85.126528     -6881710   -6867555.3 
  177000    85.234419   -6881780.7   -6867608.1 
  177100    84.236049   -6881760.6     -6867754 
  177200     85.36499   -6881809.4   -6867615.1 
  177300    85.229567     -6881841   -6867669.1 
  177400    84.990342   -6881758.7   -6867626.6 
  177500    84.557391   -6881804.1     -6867744 
  177600    85.401267   -6881784.9   -6867584.5 
  177700    85.587466   -6881655.1   -6867423.8 
  177800    85.039146   -6881743.1   -6867602.9 
  177900    84.786078   -6881769.6   -6867671.5 
  178000    84.988789   -6881754.7   -6867622.9 
  178100    84.533877   -6881851.3   -6867795.1 
  178200    84.566744   -6881777.9   -6867716.3 
  178300    84.934454   -6881797.2   -6867674.4 
  178400    85.177402   -6881830.5   -6867667.3 
  178500    85.523967   -6881785.5   -6867564.7 
  178600    84.530999   -6881831.9   -6867776.2 
  178700    84.914547   -6881792.3   -6867672.8 
  178800    84.585066   -6881797.3   -6867732.6 
  178900    84.815116   -6881770.1   -6867667.1 
  179000     84.66248   -6881752.7   -6867675.2 
  179100    84.813796   -6881778.4   -6867675.6 
  179200    84.630129   -6881831.7   -6867759.5 
  179300    84.721866   -6881782.1   -6867694.7 
  179400    84.800201   -6881818.5   -6867718.1 
  179500    85.078692   -6881880.8   -6867734.1 
  179600    85.031602   -6881830.9     -6867692 
  179700    85.086562   -6881833.1     -6867685 
  179800    85.429289   -6881792.7   -6867587.7 
  179900    85.597307   -6881844.4   -6867611.4 
  180000    84.662531   -6881812.2   -6867734.6 
  180100    84.986611   -6881756.8   -6867625.4 
  180200    85.022968   -6881738.4   -6867600.9 
  180300    84.431319     -6881817   -6867777.9 
  180400    84.713952   -6881803.4   -6867717.3 
  180500    84.555105   -6881799.1   -6867739.4 
  180600    85.186995   -6881855.2   -6867690.5 
  180700    84.723423   -6881779.5   -6867691.8 
  180800    84.917618   -6881818.5   -6867698.6 
  180900    84.759843   -6881760.4   -6867666.6 
  181000    84.968977     -6881712   -6867583.5 
  181100    85.173607   -6881813.4   -6867650.8 
  181200    84.920103   -6881767.9   -6867647.5 
  181300    84.930842   -6881781.1   -6867658.9 
  181400     84.69708   -6881782.7   -6867699.3 
  181500     85.29619     -6881808   -6867625.1 
  181600    84.837152     -6881795   -6867688.4 
  181700    84.641411   -6881778.5   -6867704.5 
  181800    85.731047   -6881763.8   -6867508.6 
  181900    84.710547   -6881783.2   -6867697.6 
  182000      85.4964   -6881779.5   -6867563.2 
  182100    85.539565   -6881759.9   -6867536.5 
  182200    85.331352   -6881745.8     -6867557 
  182300    85.216409   -6881720.3   -6867550.6 
  182400    85.758838   -6881718.8   -6867458.9 
  182500    84.621524   -6881747.2   -6867676.4 
  182600    84.952354   -6881751.9   -6867626.1 
  182700    84.473854   -6881689.5   -6867643.3 
  182800     84.73209   -6881777.9   -6867688.7 
  182900    85.125883   -6881699.3   -6867544.7 
  183000    85.095466   -6881688.3   -6867538.7 
  183100    84.549307   -6881786.3   -6867727.6 
  183200    84.830544   -6881718.1   -6867612.6 
  183300     85.70736   -6881745.3     -6867494 
  183400    85.228415   -6881726.2   -6867554.5 
  183500    84.939134   -6881692.7   -6867569.2 
  183600    85.319841   -6881724.3   -6867537.4 
  183700    85.352132   -6881728.4   -6867536.2 
  183800    84.740319   -6881759.8   -6867669.3 
  183900     85.03464   -6881692.3   -6867552.8 
  184000    85.162642   -6881703.2   -6867542.5 
  184100    84.890164   -6881678.3   -6867562.9 
  184200    85.236143   -6881634.3   -6867461.4 
  184300     85.11704   -6881618.9   -6867465.7 
  184400    85.239849   -6881655.7   -6867482.1 
  184500    85.020216   -6881701.9   -6867564.8 
  184600    84.515456     -6881702   -6867648.9 
  184700    85.125603   -6881724.8   -6867570.2 
  184800    85.090336   -6881613.6   -6867464.9 
  184900    84.516021   -6881664.9   -6867611.7 
  185000    85.062677   -6881654.7   -6867510.6 
  185100    85.381011   -6881711.6   -6867514.6 
  185200    85.140844   -6881715.8   -6867558.7 
  185300    85.358134   -6881674.2     -6867481 
  185400     84.88465   -6881754.8   -6867640.3 
  185500    85.333431   -6881777.7   -6867588.6 
  185600    84.805817   -6881727.5   -6867626.2 
  185700    84.775869   -6881802.7   -6867706.3 
  185800    84.729982   -6881816.3   -6867727.5 
  185900    84.926898   -6881797.1   -6867675.6 
  186000    85.051736   -6881848.2   -6867705.9 
  186100    84.718569   -6881821.3   -6867734.4 
  186200    84.327081   -6881772.7   -6867750.9 
  186300    84.297469   -6881812.7   -6867795.8 
  186400    85.113517     -6881789   -6867636.5 
  186500     84.84826   -6881814.1   -6867705.7 
  186600      84.9102   -6881770.2   -6867651.4 
  186700    84.958406   -6881880.4   -6867753.7 
  186800    85.165833   -6881880.8   -6867719.6 
  186900    85.099251   -6881834.7   -6867684.5 
  187000    85.115457     -6881819   -6867666.1 
  187100    84.843425   -6881810.2   -6867702.5 
  187200     84.91445   -6881814.7   -6867695.2 
  187300    84.940316   -6881870.1   -6867746.3 
  187400    85.165507   -6881903.7   -6867742.5 
  187500    85.327677   -6881858.6   -6867670.5 
  187600    85.055675   -6881889.4   -6867746.5 
  187700    85.342774   -6881908.1   -6867717.4 
  187800    84.336994   -6881902.6   -6867879.1 
  187900    84.390364   -6881875.5   -6867843.2 
  188000    84.793315   -6881921.1   -6867821.8 
  188100    84.904351   -6881932.4   -6867814.6 
  188200    84.671673   -6881874.5   -6867795.4 
  188300    84.124866   -6881898.5   -6867910.3 
  188400    84.648497   -6881862.9   -6867787.7 
  188500    85.718641   -6881919.1   -6867665.9 
  188600    84.982385   -6881878.8     -6867748 
  188700    85.272458   -6881907.2   -6867728.2 
  188800    85.517541   -6881850.6   -6867630.9 
  188900    85.136777   -6881910.6   -6867754.2 
  189000    85.429214     -6881884   -6867678.9 
  189100    85.514106   -6881858.6   -6867639.5 
  189200    85.408146   -6881914.7   -6867713.1 
  189300    85.470966   -6881825.7   -6867613.7 
  189400    84.938863   -6881779.6     -6867656 
  189500    84.614409   -6881878.7   -6867809.2 
  189600    85.114349   -6881758.3   -6867605.6 
  189700    84.935073   -6881817.7   -6867694.9 
  189800     85.07952   -6881784.1   -6867637.2 
  189900    85.049884   -6881813.8   -6867671.8 
  190000     84.31029   -6881784.2   -6867765.2 
  190100     85.13347   -6881874.7   -6867718.8 
  190200    85.153989   -6881779.3     -6867620 
  190300    85.085064   -6881747.5   -6867599.7 
  190400    84.912494   -6881810.2   -6867691.1 
  190500    84.891527   -6881761.4   -6867645.7 
  190600    84.862931   -6881632.2   -6867521.3 
  190700    84.885431   -6881716.6   -6867601.9 
  190800    84.491449   -6881700.6   -6867651.5 
  190900    84.792435     -6881726   -6867626.8 
  191000    85.010743   -6881627.5   -6867492.1 
  191100    85.300362   -6881571.5   -6867387.9 
  191200    84.965974   -6881677.1   -6867549.1 
  191300    84.887507   -6881682.1   -6867567.2 
  191400    85.625483   -6881620.9   -6867383.2 
  191500    84.667275   -6881562.4     -6867484 
  191600    84.775044   -6881477.9   -6867381.6 
  191700    84.745347   -6881589.6   -6867498.3 
  191800    84.748393   -6881526.6   -6867434.8 
  191900    85.099608   -6881618.3   -6867468.1 
  192000    85.084364   -6881578.8   -6867431.1 
  192100    84.656599   -6881652.4   -6867575.9 
  192200    84.934414   -6881629.6   -6867506.9 
  192300    85.103629   -6881563.8   -6867412.9 
  192400    85.202203   -6881551.6   -6867384.3 
  192500    85.056924   -6881615.3   -6867472.2 
  192600    85.119086   -6881601.5   -6867448.1 
  192700    84.947092   -6881617.4   -6867492.5 
  192800    85.171949   -6881551.5   -6867389.2 
  192900    84.923073   -6881605.7   -6867484.8 
  193000    85.230981     -6881615   -6867442.9 
  193100    85.585746   -6881639.4   -6867408.3 
  193200    85.353998   -6881604.5     -6867412 
  193300    84.813875   -6881720.4   -6867617.7 
  193400    84.502247   -6881733.6   -6867682.7 
  193500    85.337077   -6881639.5   -6867449.7 
  193600    84.901492   -6881680.1   -6867562.8 
  193700    85.221933   -6881644.4   -6867473.8 
  193800    85.412107     -6881731   -6867528.8 
  193900    85.374733   -6881681.4   -6867485.4 
  194000    85.249835   -6881702.6   -6867527.4 
  194100    85.379161   -6881690.7     -6867494 
  194200    84.813074   -6881605.8   -6867503.2 
  194300    85.077078   -6881743.6   -6867597.1 
  194400    85.035542   -6881684.9   -6867545.3 
  194500    84.859513   -6881766.8   -6867656.5 
  194600    85.202094   -6881683.2   -6867515.9 
  194700    84.980068   -6881699.4     -6867569 
  194800    85.193636   -6881673.5   -6867507.6 
  194900    85.240275   -6881747.3   -6867573.7 
  195000    85.433508   -6881689.4   -6867483.6 
  195100    85.225411   -6881719.8   -6867548.6 
  195200    84.767019     -6881823   -6867728.1 
  195300     84.69631   -6881725.1   -6867641.9 
  195400     85.32279   -6881705.2   -6867517.9 
  195500    84.719748   -6881715.4   -6867628.3 
  195600    85.066086   -6881732.6   -6867587.9 
  195700    85.001856   -6881830.6   -6867696.6 
  195800      85.2085   -6881843.5   -6867675.1 
  195900    85.369375   -6881777.9   -6867582.8 
  196000    85.120949     -6881793   -6867639.2 
  196100    85.203834   -6881817.8   -6867650.2 
  196200     85.14351   -6881875.9   -6867718.4 
  196300    84.841043   -6881767.1   -6867659.8 
  196400    85.299591     -6881819   -6867635.5 
  196500    84.975511   -6881820.9   -6867691.3 
  196600    85.004801     -6881803   -6867668.5 
  196700    84.716824   -6881808.2   -6867721.6 
  196800    85.282781   -6881828.6   -6867647.9 
  196900     85.20282   -6881807.3   -6867639.9 
  197000    84.868815   -6881750.1   -6867638.2 
  197100    84.902992   -6881748.7   -6867631.2 
  197200    85.097574   -6881866.6   -6867716.7 
  197300    84.537772   -6881703.9   -6867647.1 
  197400    84.524496   -6881830.6     -6867776 
  197500    84.749977   -6881861.6   -6867769.5 
  197600    84.789809   -6881796.3   -6867697.6 
  197700    85.152301     -6881747     -6867588 
  197800    85.157589   -6881723.1   -6867563.2 
  197900     84.99069   -6881745.7   -6867613.6 
  198000    85.308836   -6881802.9   -6867617.9 
  198100    84.712825   -6881892.6   -6867806.7 
  198200    84.996277   -6881802.5   -6867669.4 
  198300    85.099467   -6881821.5   -6867671.3 
  198400    84.910199   -6881834.8     -6867716 
  198500    85.149294   -6881849.3   -6867690.8 
  198600    84.805753   -6881848.5   -6867747.1 
  198700    84.616725   -6881859.9     -6867790 
  198800     84.80471   -6881839.2     -6867738 
  198900    84.409346   -6881827.5   -6867792.1 
  199000    84.813515   -6881836.3   -6867733.7 
  199100    84.758993   -6881798.6     -6867705 
  199200    84.649756   -6881772.4     -6867697 
  199300    84.849068     -6881760   -6867651.4 
  199400    85.286946   -6881701.2   -6867519.8 
  199500    84.680203   -6881735.5     -6867655 
  199600    85.111973     -6881734   -6867581.7 
  199700    84.548576   -6881711.4   -6867652.8 
  199800    85.160675   -6881689.9   -6867529.5 
  199900    85.120276   -6881776.5   -6867622.8 
  200000     84.90239   -6881669.6   -6867552.1 
  200100    84.945507   -6881654.5   -6867529.9 
  200200    85.189718   -6881615.4   -6867450.2 
  200300    85.254759   -6881707.8   -6867531.8 
  200400    84.621357   -6881622.3   -6867551.6 
  200500     85.12212   -6881667.6   -6867513.6 
  200600    85.163002   -6881667.9   -6867507.2 
  200700    85.086117   -6881665.6   -6867517.6 
  200800     85.46152   -6881666.9   -6867456.4 
  200900    85.112832   -6881685.9   -6867533.4 
  201000    84.795898   -6881651.4   -6867551.7 
  201100    84.737128   -6881701.6   -6867611.6 
  201200    84.959141   -6881726.7   -6867599.8 
  201300    85.210209   -6881661.4   -6867492.8 
  201400    85.784233   -6881673.7   -6867409.7 
  201500    84.729679   -6881682.9   -6867594.2 
  201600     84.70709   -6881595.1   -6867510.1 
  201700    85.207211   -6881681.9   -6867513.7 
  201800    84.958546   -6881694.6   -6867567.9 
  201900    85.250485     -6881715   -6867539.7 
  202000    85.262926   -6881656.5   -6867479.2 
  202100    85.442682     -6881607   -6867399.8 
  202200    85.003904   -6881651.8   -6867517.4 
  202300    85.067004   -6881653.1   -6867508.3 
  202400    85.039775   -6881670.1   -6867529.8 
  202500    84.851012   -6881643.6   -6867534.7 
  202600    84.832338   -6881687.4   -6867581.6 
  202700    85.076562   -6881686.5   -6867540.1 
  202800     84.91225     -6881652     -6867533 
  202900    85.064413   -6881674.4     -6867530 
  203000    85.068989   -6881736.2   -6867591.1 
  203100    84.759334   -6881701.7     -6867608 
  203200    85.020638   -6881700.5   -6867563.4 
  203300    85.215335   -6881773.4   -6867603.9 
  203400    84.650645   -6881767.1   -6867691.5 
  203500    84.963601   -6881764.7   -6867637.1 
  203600    84.754572   -6881697.2   -6867604.3 
  203700    85.027914     -6881778   -6867639.7 
  203800    84.783749   -6881577.1   -6867479.4 
  203900    84.739928   -6881658.6   -6867568.1 
  204000    85.040889   -6881703.7   -6867563.3 
  204100    84.623293   -6881646.4   -6867575.4 
  204200    84.910169   -6881705.6   -6867586.8 
  204300      85.2241   -6881686.2   -6867515.2 
  204400    84.965161   -6881683.1   -6867555.3 
  204500    84.734288   -6881601.6   -6867512.2 
  204600    85.052704   -6881569.4     -6867427 
  204700    85.816782   -6881585.9   -6867316.4 
  204800    84.814907     -6881702   -6867599.1 
  204900    84.676032   -6881675.7   -6867595.9 
  205000    84.135227   -6881737.2   -6867747.3 
  205100    85.314147   -6881696.6   -6867510.7 
  205200    84.882817     -6881711   -6867596.8 
  205300    85.529834   -6881785.9   -6867564.1 
  205400    85.061695   -6881764.1   -6867620.2 
  205500    85.038304   -6881767.9   -6867627.8 
  205600    85.076685   -6881763.4     -6867617 
  205700    84.901428   -6881752.4   -6867635.1 
  205800     84.90581     -6881751     -6867633 
  205900    84.884239   -6881794.7   -6867680.2 
  206000    85.078267   -6881772.7     -6867626 
  206100    84.995972   -6881740.1   -6867607.1 
  206200    84.960133   -6881775.7   -6867648.6 
  206300    85.034577   -6881815.2   -6867675.8 
  206400    84.684203   -6881769.7   -6867688.5 
  206500    85.286068   -6881906.7   -6867725.4 
  206600    85.067595   -6881792.4   -6867647.4 
  206700      84.9604     -6881775   -6867647.9 
  206800    84.904115   -6881766.8   -6867649.1 
  206900    84.859949   -6881728.5   -6867618.1 
  207000    84.939513   -6881683.5   -6867559.9 
  207100    84.598954   -6881764.4   -6867697.4 
  207200    85.355239   -6881760.3   -6867567.6 
  207300    84.936901   -6881766.6   -6867643.4 
  207400    84.913108   -6881719.8   -6867600.6 
  207500    85.098046   -6881775.5   -6867625.5 
  207600    84.803831   -6881713.2   -6867612.2 
  207700    84.921519   -6881712.4   -6867591.8 
  207800    85.090859   -6881746.9   -6867598.2 
  207900    85.242941   -6881700.6   -6867526.5 
  208000    85.972805   -6881677.3   -6867381.9 
  208100     85.13807   -6881706.6     -6867550 
  208200    85.333764   -6881766.5   -6867577.3 
  208300    84.571953     -6881614   -6867551.5 
  208400    84.930717   -6881683.8   -6867561.7 
  208500    85.293075   -6881617.9   -6867435.5 
  208600    85.236141   -6881712.7   -6867539.7 
  208700    84.879325   -6881666.4   -6867552.8 
  208800    84.764948   -6881651.3   -6867556.8 
  208900    85.061567   -6881698.4   -6867554.4 
  209000    85.024603   -6881640.3   -6867502.5 
  209100     85.03633   -6881635.7     -6867496 
  209200    85.162884   -6881598.1   -6867437.4 
  209300    84.856137   -6881715.5   -6867605.8 
  209400    84.730148   -6881640.3   -6867551.5 
  209500    84.877465   -6881673.4   -6867560.1 
  209600    84.706541   -6881697.7   -6867612.8 
  209700    85.403417     -6881690   -6867489.2 
  209800    85.140314   -6881679.5   -6867522.5 
  209900    85.075046   -6881591.1   -6867444.9 
  210000    85.155626   -6881675.1   -6867515.6 
  210100    84.754688   -6881624.3   -6867531.5 
  210200    84.748726   -6881584.6   -6867492.7 
  210300    84.532926   -6881628.9   -6867572.9 
  210400    85.335252   -6881677.5   -6867488.1 
  210500    85.209094   -6881605.1   -6867436.7 
  210600    85.197139     -6881718   -6867551.6 
  210700    84.807102   -6881655.6     -6867554 
  210800     85.42523   -6881559.2   -6867354.8 
  210900    85.132084   -6881627.5   -6867471.8 
  211000    84.782702   -6881590.9   -6867493.4 
  211100    85.168705   -6881640.5   -6867478.8 
  211200    85.017614   -6881641.2   -6867504.6 
  211300    85.257678   -6881617.5     -6867441 
  211400    85.199627     -6881666   -6867499.1 
  211500    84.998464   -6881650.7   -6867517.3 
  211600    85.742826     -6881672   -6867414.8 
  211700    85.375538   -6881661.6   -6867465.5 
  211800    85.098735   -6881694.7   -6867544.6 
  211900    84.798679   -6881604.3   -6867504.1 
  212000    85.317815   -6881708.7   -6867522.1 
  212100    84.405144   -6881674.3   -6867639.6 
  212200    85.774499   -6881736.4   -6867473.9 
  212300    85.231553   -6881710.9   -6867538.7 
  212400    84.845536   -6881716.8   -6867608.8 
  212500    84.534795     -6881764   -6867707.7 
  212600    85.073936   -6881754.4   -6867608.5 
  212700    84.620167   -6881704.7   -6867634.2 
  212800    84.837021     -6881680   -6867573.4 
  212900    85.516767   -6881644.3   -6867424.7 
  213000    84.766156   -6881704.2   -6867609.4 
  213100    85.083804     -6881670   -6867522.4 
  213200    84.815659   -6881647.2   -6867544.2 
  213300    84.988289   -6881573.1   -6867441.4 
  213400    85.202559   -6881743.3   -6867575.9 
  213500    84.695995   -6881690.3   -6867607.2 
  213600    84.295252   -6881764.6   -6867748.1 
  213700    85.582176   -6881734.8   -6867504.4 
  213800    85.026053   -6881768.9   -6867630.9 
  213900    85.038033   -6881709.9   -6867569.9 
  214000    85.794755   -6881728.2   -6867462.4 
  214100     84.87203   -6881765.3   -6867652.9 
  214200     84.97106   -6881769.6   -6867640.7 
  214300     84.73488   -6881797.8   -6867708.2 
  214400    84.030139   -6881796.6   -6867824.2 
  214500    84.463829   -6881846.8   -6867802.3 
  214600    84.971355     -6881755   -6867626.1 
  214700    85.254069   -6881774.5   -6867598.6 
  214800    84.521299     -6881690   -6867635.9 
  214900    84